 # Version information for this restart file 
 # current date 2025-04-26 06:58:32.298
 # current working dir /home/louimatt/projects/comp_chem_project/ucl3_md_new
 # Program compiled at                              Mon Feb  5 13:19:46 MST 2024
 # Program compiled on                                             sawtoothbuild
 # Program compiled for                                                    local
 # Source code revision number                                       git:b4a17a5
 &GLOBAL
   PRINT_LEVEL LOW
   PROJECT_NAME "UCl3_md"
   RUN_TYPE MD
 &END GLOBAL
 &MOTION
   &MD
     ENSEMBLE NVT
     STEPS 10000
     TIMESTEP  1.9999999999999998E+000
     STEP_START_VAL 3000
     TIME_START_VAL  5.9999999999996671E+003
     ECONS_START_VAL -4.1379789718276179E+003
     TEMPERATURE  1.2500000000000002E+003
     &THERMOSTAT
       TYPE AD_LANGEVIN
       REGION MASSIVE
       &AD_LANGEVIN
         TIMECON_NH  9.9999999999999986E+001
         TIMECON_LANGEVIN  2.4999999999999996E+000
         &CHI
            -3.1100180114601770E-003
            -1.2628057263464153E-002
            -1.7802395859990966E-003
             5.2334585950232675E-003
            -7.0200045771453010E-003
            -4.3491817752900125E-003
             1.4974050225786757E-002
            -4.4477025636109474E-003
            -1.4633434329607070E-002
            -1.5639799465373343E-002
            -1.0968751458454341E-002
             4.6316793000689563E-003
            -1.2327605660295199E-002
            -2.4955684497982521E-003
            -4.3423129289196175E-003
             1.8083898738682829E-003
            -2.2893791758097828E-003
            -2.7447881974230082E-003
            -6.8418862114086945E-003
             1.1442511958838435E-002
             1.8193984118603523E-002
             4.6742627415578665E-003
            -6.7857424506723065E-004
            -5.2153787215882702E-004
            -1.9477897254700442E-002
             8.7822867579184967E-004
            -3.7770137845367269E-003
            -1.8488420874550368E-002
             1.0805717303534419E-002
            -2.4228015122234473E-003
            -1.5117384366633338E-003
            -1.3326565113438594E-002
            -1.5810348145138394E-003
             1.0497156859315104E-002
            -1.2517106520036311E-002
            -1.8961896181238575E-002
             4.9809102282396631E-003
             1.4920292878286492E-002
             9.5665015703728267E-004
            -7.7095583182880036E-003
            -1.2745154169870930E-003
            -9.0528131560910149E-003
            -2.6520811669452308E-003
             3.6369530037527924E-003
            -3.6608206773007536E-003
            -1.8461806371657695E-002
             1.2495363140391352E-002
            -7.0499048093590260E-004
            -3.4145500873633848E-004
             4.7557126599838094E-003
            -3.7496064075068073E-003
            -5.8643260606894435E-003
            -4.7919797946818759E-003
             1.5370498254784926E-002
             1.1603765185212554E-002
             3.8883272062912954E-004
             4.0152618093451118E-003
             1.1361228140493930E-003
             2.0024938010615511E-002
             1.3401224243308181E-002
             1.4280808949200686E-002
             5.8912139925401744E-003
             1.3288829575810955E-002
             6.9830353829766975E-003
            -1.7879871537697745E-003
             2.2878515475288994E-002
            -1.8726007147654610E-002
             1.8196746080913311E-003
             5.7911580499565071E-003
            -2.1387586688518583E-002
            -1.0022825743901764E-002
            -3.7508912879365111E-003
             8.4283184813169695E-003
             8.2432327848529878E-003
             6.2329256289769082E-003
            -4.5184542192880468E-003
             1.1335027567748495E-002
            -2.5395254317728860E-002
             5.7905535724562033E-004
            -8.0214960710365216E-003
            -1.7413207561694791E-002
             1.7488364765379173E-002
             5.0511510601571772E-003
            -1.3958726894662988E-003
            -1.1314093315575985E-002
             1.9338603156954044E-003
             8.2958233508269210E-004
             5.0376018452080490E-004
            -3.8141803122209586E-003
             1.0184802838965772E-002
             6.6810524060286341E-003
             1.1066593700285912E-002
             3.4078591495854192E-003
            -4.6055830197760245E-003
            -7.3830933237792676E-004
             4.4058396965833083E-003
            -1.5350746573362779E-002
            -7.6181433895212815E-003
             1.0465460282943055E-002
             1.9796967508482768E-002
             4.1484047905767218E-003
            -5.1298762220435079E-003
             1.8266987524426737E-002
             2.3898193447560775E-003
             7.9823696706551109E-003
            -1.4659324125054380E-002
            -1.5068673676905658E-002
            -9.2567946070570527E-003
             7.8036153360234129E-003
            -1.4074467815466288E-002
             3.7673610415622965E-003
             1.1197287654938199E-002
            -1.6229092872830416E-002
             1.8224700027515774E-002
             1.0761759764019829E-002
            -8.0037564611400332E-003
            -4.5717400507615802E-003
            -1.0852452713646687E-002
            -2.1753063834881927E-003
            -1.8192072550069392E-003
             4.9549741323978171E-004
             9.7178204428881813E-003
             7.0510628951630325E-003
            -2.6805595712262619E-003
            -1.3953333241210498E-002
             2.7328235248484235E-003
             2.0782267609408715E-002
             6.2178203061098170E-003
             1.0568284241831188E-002
            -1.5569991846320422E-002
             1.5843396820814728E-002
             2.7834091636263340E-003
            -5.9383071413011650E-005
            -1.1791933228650514E-002
            -2.3539861780106072E-002
            -6.3895341823328629E-003
            -6.0611467402139968E-003
             1.7056921174117827E-003
             6.2876115394806843E-003
             4.1113578918023157E-005
            -1.2667557633428918E-003
            -4.0591925666992124E-003
            -4.9121007611067210E-003
            -1.6174704230641591E-002
             1.8907381639868474E-003
             7.4386367464736713E-003
            -3.7235891153653447E-003
            -1.2311745605096241E-002
             2.3923766337805821E-003
             1.0003821503775698E-002
             6.9487775922862823E-003
             2.2194481407511943E-002
            -4.0948328295435411E-003
            -6.3921889003924065E-003
            -6.3554763922014524E-003
            -9.2136884170567835E-004
            -2.3806499319121204E-004
            -1.2087187805116036E-003
             2.3199768943334319E-002
             2.6565955755536385E-003
             6.7193106513344395E-003
             4.8623069049640952E-003
            -3.5068003613037634E-003
            -3.9286434067558702E-003
             3.3922457686415097E-003
             7.6706360485321815E-003
             4.6340680674956973E-003
            -1.7687670255824878E-002
             1.7839210152598159E-003
            -6.7918348146614469E-003
             8.2641474427380332E-003
             2.4744814945151392E-002
            -1.2143870401622734E-002
             1.4960352683635744E-003
            -6.4514602904979269E-003
             2.3328632271938089E-002
            -1.4634255547328300E-003
             6.3771729688910867E-003
            -9.0929263816950621E-003
            -1.9048676857316031E-002
            -5.5787276323744483E-003
            -1.3592182968004306E-002
            -6.8138862293272125E-003
             2.1661848193033758E-003
             1.6525112194579377E-003
             4.9996265058370182E-003
            -1.9503236918813091E-003
            -9.0389999460100384E-003
            -2.8234810872297726E-004
             2.0890274304568197E-003
             2.4961899921979048E-003
             9.0830383393240392E-003
         &END CHI
         &MASS
             2.7969677064634417E+006
             2.7969677064634417E+006
             2.7969677064634417E+006
             2.7969677064634417E+006
             2.7969677064634417E+006
             2.7969677064634417E+006
             2.7969677064634417E+006
             2.7969677064634417E+006
             2.7969677064634417E+006
             2.7969677064634417E+006
             2.7969677064634417E+006
             2.7969677064634417E+006
             2.7969677064634417E+006
             2.7969677064634417E+006
             2.7969677064634417E+006
             2.7969677064634417E+006
             2.7969677064634417E+006
             2.7969677064634417E+006
             2.7969677064634417E+006
             2.7969677064634417E+006
             2.7969677064634417E+006
             2.7969677064634417E+006
             2.7969677064634417E+006
             2.7969677064634417E+006
             2.7969677064634417E+006
             2.7969677064634417E+006
             2.7969677064634417E+006
             2.7969677064634417E+006
             2.7969677064634417E+006
             2.7969677064634417E+006
             2.7969677064634417E+006
             2.7969677064634417E+006
             2.7969677064634417E+006
             2.7969677064634417E+006
             2.7969677064634417E+006
             2.7969677064634417E+006
             2.7969677064634417E+006
             2.7969677064634417E+006
             2.7969677064634417E+006
             2.7969677064634417E+006
             2.7969677064634417E+006
             2.7969677064634417E+006
             2.7969677064634417E+006
             2.7969677064634417E+006
             2.7969677064634417E+006
             2.7969677064634417E+006
             2.7969677064634417E+006
             2.7969677064634417E+006
             2.7969677064634417E+006
             2.7969677064634417E+006
             2.7969677064634417E+006
             2.7969677064634417E+006
             2.7969677064634417E+006
             2.7969677064634417E+006
             2.7969677064634417E+006
             2.7969677064634417E+006
             2.7969677064634417E+006
             2.7969677064634417E+006
             2.7969677064634417E+006
             2.7969677064634417E+006
             2.7969677064634417E+006
             2.7969677064634417E+006
             2.7969677064634417E+006
             2.7969677064634417E+006
             2.7969677064634417E+006
             2.7969677064634417E+006
             2.7969677064634417E+006
             2.7969677064634417E+006
             2.7969677064634417E+006
             2.7969677064634417E+006
             2.7969677064634417E+006
             2.7969677064634417E+006
             2.7969677064634417E+006
             2.7969677064634417E+006
             2.7969677064634417E+006
             2.7969677064634417E+006
             2.7969677064634417E+006
             2.7969677064634417E+006
             2.7969677064634417E+006
             2.7969677064634417E+006
             2.7969677064634417E+006
             2.7969677064634417E+006
             2.7969677064634417E+006
             2.7969677064634417E+006
             2.7969677064634417E+006
             2.7969677064634417E+006
             2.7969677064634417E+006
             2.7969677064634417E+006
             2.7969677064634417E+006
             2.7969677064634417E+006
             2.7969677064634417E+006
             2.7969677064634417E+006
             2.7969677064634417E+006
             2.7969677064634417E+006
             2.7969677064634417E+006
             2.7969677064634417E+006
             2.7969677064634417E+006
             2.7969677064634417E+006
             2.7969677064634417E+006
             2.7969677064634417E+006
             2.7969677064634417E+006
             2.7969677064634417E+006
             2.7969677064634417E+006
             2.7969677064634417E+006
             2.7969677064634417E+006
             2.7969677064634417E+006
             2.7969677064634417E+006
             2.7969677064634417E+006
             2.7969677064634417E+006
             2.7969677064634417E+006
             2.7969677064634417E+006
             2.7969677064634417E+006
             2.7969677064634417E+006
             2.7969677064634417E+006
             2.7969677064634417E+006
             2.7969677064634417E+006
             2.7969677064634417E+006
             2.7969677064634417E+006
             2.7969677064634417E+006
             2.7969677064634417E+006
             2.7969677064634417E+006
             2.7969677064634417E+006
             2.7969677064634417E+006
             2.7969677064634417E+006
             2.7969677064634417E+006
             2.7969677064634417E+006
             2.7969677064634417E+006
             2.7969677064634417E+006
             2.7969677064634417E+006
             2.7969677064634417E+006
             2.7969677064634417E+006
             2.7969677064634417E+006
             2.7969677064634417E+006
             2.7969677064634417E+006
             2.7969677064634417E+006
             2.7969677064634417E+006
             2.7969677064634417E+006
             2.7969677064634417E+006
             2.7969677064634417E+006
             2.7969677064634417E+006
             2.7969677064634417E+006
             2.7969677064634417E+006
             2.7969677064634417E+006
             2.7969677064634417E+006
             2.7969677064634417E+006
             2.7969677064634417E+006
             2.7969677064634417E+006
             2.7969677064634417E+006
             2.7969677064634417E+006
             2.7969677064634417E+006
             2.7969677064634417E+006
             2.7969677064634417E+006
             2.7969677064634417E+006
             2.7969677064634417E+006
             2.7969677064634417E+006
             2.7969677064634417E+006
             2.7969677064634417E+006
             2.7969677064634417E+006
             2.7969677064634417E+006
             2.7969677064634417E+006
             2.7969677064634417E+006
             2.7969677064634417E+006
             2.7969677064634417E+006
             2.7969677064634417E+006
             2.7969677064634417E+006
             2.7969677064634417E+006
             2.7969677064634417E+006
             2.7969677064634417E+006
             2.7969677064634417E+006
             2.7969677064634417E+006
             2.7969677064634417E+006
             2.7969677064634417E+006
             2.7969677064634417E+006
             2.7969677064634417E+006
             2.7969677064634417E+006
             2.7969677064634417E+006
             2.7969677064634417E+006
             2.7969677064634417E+006
             2.7969677064634417E+006
             2.7969677064634417E+006
             2.7969677064634417E+006
             2.7969677064634417E+006
             2.7969677064634417E+006
             2.7969677064634417E+006
             2.7969677064634417E+006
             2.7969677064634417E+006
             2.7969677064634417E+006
             2.7969677064634417E+006
             2.7969677064634417E+006
             2.7969677064634417E+006
             2.7969677064634417E+006
             2.7969677064634417E+006
         &END MASS
       &END AD_LANGEVIN
     &END THERMOSTAT
     &AVERAGES T
       &RESTART_AVERAGES
         ITIMES_START 1
         AVECPU  7.5122958585057916E+001
         AVEHUGONIOT  0.0000000000000000E+000
         AVETEMP_BARO  0.0000000000000000E+000
         AVEPOT -4.1429830875700627E+003
         AVEKIN  3.7976800004218764E-001
         AVETEMP  1.2491781926888236E+003
         AVEKIN_QM  0.0000000000000000E+000
         AVETEMP_QM  0.0000000000000000E+000
         AVEVOL  1.2804379601851466E+004
         AVECELL_A  2.3394809525124341E+001
         AVECELL_B  2.3394809525124341E+001
         AVECELL_C  2.3394809525124341E+001
         AVEALPHA  9.0000000000000000E+001
         AVEBETA  9.0000000000000000E+001
         AVEGAMMA  9.0000000000000000E+001
         AVE_ECONS -2.2816109972355720E+004
         AVE_PRESS  0.0000000000000000E+000
         AVE_PXX  0.0000000000000000E+000
       &END RESTART_AVERAGES
     &END AVERAGES
   &END MD
   &PRINT
     &TRAJECTORY SILENT
       FILENAME ucl3_md.xyz
       FORMAT XMOL
       &EACH
         MD 10
       &END EACH
     &END TRAJECTORY
     &VELOCITIES ON
     &END VELOCITIES
   &END PRINT
 &END MOTION
 &FORCE_EVAL
   METHOD QS
   &DFT
     BASIS_SET_FILE_NAME BASIS_MOLOPT
     BASIS_SET_FILE_NAME BASIS_MOLOPT_AcPP1
     POTENTIAL_FILE_NAME CUSTOM_POTENTIALS
     PLUS_U_METHOD LOWDIN
     &SCF
       MAX_SCF 10000
       EPS_SCF  2.9999999999999999E-007
       SCF_GUESS RESTART
       &OT T
         MINIMIZER CG
         PRECONDITIONER FULL_SINGLE_INVERSE
         ENERGY_GAP  1.0000000000000001E-001
       &END OT
     &END SCF
     &QS
       EPS_DEFAULT  1.0000000000000000E-010
     &END QS
     &MGRID
       NGRIDS 4
       CUTOFF  4.5000000000000000E+002
       REL_CUTOFF  6.0000000000000000E+001
     &END MGRID
     &XC
       DENSITY_CUTOFF  1.0000000000000000E-010
       GRADIENT_CUTOFF  1.0000000000000000E-010
       TAU_CUTOFF  1.0000000000000000E-010
       &XC_FUNCTIONAL NO_SHORTCUT
         &PBE T
         &END PBE
       &END XC_FUNCTIONAL
     &END XC
     &REAL_TIME_PROPAGATION
       INITIAL_WFN SCF_WFN
     &END REAL_TIME_PROPAGATION
   &END DFT
   &SUBSYS
     &RNG_INIT
 Wiener process for particle 1            1 F T F   4.0691149217710774E-03        3725711060.0         353298866.0        1106419462.0         360931104.0        2487807989.0         617293997.0             12345.0             12345.0             12345.0             12345.0             12345.0             12345.0             12345.0             12345.0             12345.0             12345.0             12345.0             12345.0
 Wiener process for particle 2            1 F T F   6.8324050804443259E-02        3261499349.0         856025391.0        1467983696.0        1812665368.0        2579358297.0        3584351096.0        3692455944.0        1366884236.0        2968912127.0         335948734.0        4161675175.0         475798818.0        3692455944.0        1366884236.0        2968912127.0         335948734.0        4161675175.0         475798818.0
 Wiener process for particle 3            1 F T F   1.2662591600257062E-01         814043412.0        3737500158.0        1300007119.0        3959513828.0        1336794420.0        3705372661.0        1015873554.0        1310354410.0        2249465273.0         994084013.0        2912484720.0        3876682925.0        1015873554.0        1310354410.0        2249465273.0         994084013.0        2912484720.0        3876682925.0
 Wiener process for particle 4            1 F T F   7.7776263658912670E-01        3715863978.0        3447645140.0        2119153716.0         330104900.0        3922983692.0        2910376546.0        2338701263.0        1119171942.0        2570676563.0         317077452.0        3194180850.0         618832124.0        2338701263.0        1119171942.0        2570676563.0         317077452.0        3194180850.0         618832124.0
 Wiener process for particle 5            1 F T F   3.9056054921272265E-01        1136411489.0         429516644.0        3259279865.0        1167270969.0        2351109717.0        3358985521.0        1597262096.0        3906379055.0        3312112953.0        1016013135.0        4099474108.0         275305423.0        1597262096.0        3906379055.0        3312112953.0        1016013135.0        4099474108.0         275305423.0
 Wiener process for particle 6            1 F T F  -4.3428353013261436E-02        3266613744.0        2881035193.0        1701864496.0        3816237900.0        2294372626.0        3609682950.0          97147054.0        3131372450.0         829345164.0        3691032523.0        3006063034.0        4259826321.0          97147054.0        3131372450.0         829345164.0        3691032523.0        3006063034.0        4259826321.0
 Wiener process for particle 7            1 F T F   5.9844831915003371E-01        4098449795.0        2770829596.0        1435931054.0        1672167734.0        3693371674.0         568765348.0         796079799.0        2105258207.0         955365076.0        2923159030.0        4116632677.0        3067683584.0         796079799.0        2105258207.0         955365076.0        2923159030.0        4116632677.0        3067683584.0
 Wiener process for particle 8            1 F T F   7.4152128496293920E-02        1309438332.0         543862286.0        2939832293.0        3450953212.0        2603330056.0        2926511566.0        3281794178.0        2616230133.0        1457051261.0        2762791137.0        2480527362.0        2282316169.0        3281794178.0        2616230133.0        1457051261.0        2762791137.0        2480527362.0        2282316169.0
 Wiener process for particle 9            1 F T F   9.3611467438498908E-01        3980119860.0        2966078915.0        3955061962.0        1695005328.0         199342636.0         283625690.0        3777646647.0        1837464056.0        4204654757.0         664239048.0        4190510072.0        2959195122.0        3777646647.0        1837464056.0        4204654757.0         664239048.0        4190510072.0        2959195122.0
 Wiener process for particle 10           1 F T F   1.7900248235502736E+00        3132627621.0        1775662956.0          23835582.0        2631731492.0        3085227373.0        3238831354.0        4215590817.0        3862461878.0        1087200967.0        1544910132.0         936383720.0        1611370123.0        4215590817.0        3862461878.0        1087200967.0        1544910132.0         936383720.0        1611370123.0
 Wiener process for particle 11           1 F T F   4.7602282177610411E-01        3053625087.0        3673830246.0        3214762502.0        2274397571.0         440793914.0        1685113931.0        1683636369.0         362165168.0         814316280.0         869382050.0         980203903.0        2062101717.0        1683636369.0         362165168.0         814316280.0         869382050.0         980203903.0        2062101717.0
 Wiener process for particle 12           1 F T F  -1.3004534504042323E-01        2158775327.0        1475300254.0         725266814.0        2608349117.0        1390545907.0        4021319893.0         272317999.0         166758548.0         310112982.0         201045826.0        1680231254.0         118290799.0         272317999.0         166758548.0         310112982.0         201045826.0        1680231254.0         118290799.0
 Wiener process for particle 13           1 F T F  -3.7026025557319064E-01        2060674495.0         653115239.0        4018709896.0        3497979802.0        3197201336.0        1671682300.0        2245755202.0        1652682525.0        2865544364.0         721509566.0         209733568.0         592362218.0        2245755202.0        1652682525.0        2865544364.0         721509566.0         209733568.0         592362218.0
 Wiener process for particle 14           1 F T F   8.8660413520700521E-01         559074562.0        1423942141.0        4077860889.0         276639931.0        2098773262.0        3990284914.0        3003961408.0        3529909391.0          14538032.0        3603919910.0         566682685.0        1235016484.0        3003961408.0        3529909391.0          14538032.0        3603919910.0         566682685.0        1235016484.0
 Wiener process for particle 15           1 F T F   1.8053514210737316E+00        1493837437.0         730681699.0         168072484.0        2097256995.0        2470656831.0        2096898459.0         596094074.0        2279636413.0        3050913596.0        1739649456.0        2368706608.0        3058697049.0         596094074.0        2279636413.0        3050913596.0        1739649456.0        2368706608.0        3058697049.0
 Wiener process for particle 16           1 F T F  -4.0003368283602297E-01        3989853346.0        3718521794.0         892218871.0        2200376322.0        2786519892.0        1465689194.0        1437096527.0        2547142266.0        2541498983.0        2640839690.0        2160978219.0        2618657830.0        1437096527.0        2547142266.0        2541498983.0        2640839690.0        2160978219.0        2618657830.0
 Wiener process for particle 17           1 F T F   9.4953726534545424E-01        4294080375.0        1353746113.0        3072192948.0        3510813772.0        3117569356.0        3189265982.0        3224044943.0        1227141655.0        2220611050.0        1504589054.0        2829780440.0         108189859.0        3224044943.0        1227141655.0        2220611050.0        1504589054.0        2829780440.0         108189859.0
 Wiener process for particle 18           1 F T F  -1.5178140466753820E+00        1830971151.0          92017197.0        3488804262.0        1286195351.0        3166735074.0        3164970063.0         927434978.0        1593504038.0        2143021818.0        1749489845.0        1330187821.0        2371554242.0         927434978.0        1593504038.0        2143021818.0        1749489845.0        1330187821.0        2371554242.0
 Wiener process for particle 19           1 F T F  -2.9929355880396435E-01        1884463009.0        2883419970.0        3491136615.0        4129155325.0        2372782157.0        3176046751.0        3446225690.0         835741554.0        2195834023.0        1297741021.0        3357053382.0         383824268.0        3446225690.0         835741554.0        2195834023.0        1297741021.0        3357053382.0         383824268.0
 Wiener process for particle 20           1 F T F   1.2692058168765106E+00        2221140599.0        2548106843.0        2179700248.0        2514385609.0        3995071619.0         632099708.0        3984477137.0        1267973573.0        3770063761.0         216527865.0        1568537936.0        1200352663.0        3984477137.0        1267973573.0        3770063761.0         216527865.0        1568537936.0        1200352663.0
 Wiener process for particle 21           1 F T F   4.9593449393464252E-02        2155500316.0        1906098208.0        2976525951.0        1819227735.0        3909989272.0        3949433860.0        2503334853.0        3179736892.0        2080184241.0        2881517721.0        3611607237.0        2639045213.0        2503334853.0        3179736892.0        2080184241.0        2881517721.0        3611607237.0        2639045213.0
 Wiener process for particle 22           1 F T F   9.3755474670613653E-02         261812188.0        1919513435.0        2486990970.0        3924608443.0        2989956289.0        3780164504.0        2784301963.0        3004110709.0        4065265451.0        2351994899.0        1824839263.0        1473060447.0        2784301963.0        3004110709.0        4065265451.0        2351994899.0        1824839263.0        1473060447.0
 Wiener process for particle 23           1 F T F  -6.0467428473388485E-01        1546647823.0         162296841.0        2705301114.0        1915506941.0        4246539817.0        1263869605.0        3645411182.0        1391027122.0        3995023402.0         536114258.0        1376034799.0        2391282907.0        3645411182.0        1391027122.0        3995023402.0         536114258.0        1376034799.0        2391282907.0
 Wiener process for particle 24           1 F T F  -2.1969626456759297E-01        1364669439.0        3356373163.0         381561350.0        1325468581.0        1338437170.0        1413635703.0        4205039797.0        2998067142.0        2737381050.0        2060484144.0          21123025.0         900610517.0        4205039797.0        2998067142.0        2737381050.0        2060484144.0          21123025.0         900610517.0
 Wiener process for particle 25           1 F T F  -4.8487907719832646E-01        2224714823.0        1691310622.0        2532003511.0         300139102.0          60763730.0        2415190933.0        1708138263.0        1103344630.0        3131738563.0         354874525.0        1462105562.0        2799820805.0        1708138263.0        1103344630.0        3131738563.0         354874525.0        1462105562.0        2799820805.0
 Wiener process for particle 26           1 F T F  -5.8298474639724340E-01        2110333933.0        2389116961.0         375270224.0         920259340.0        1357693791.0        1651691743.0        1762624356.0        3338520614.0        1869672149.0        2420033342.0        3823777008.0        4112813433.0        1762624356.0        3338520614.0        1869672149.0        2420033342.0        3823777008.0        4112813433.0
 Wiener process for particle 27           1 F T F  -1.2877214411563722E+00        1251220289.0        3453647893.0        2342408618.0        1175202142.0        2719158294.0         176813329.0        1406960847.0        2689758640.0        2086764669.0        1479781266.0        4277003072.0        4173905453.0        1406960847.0        2689758640.0        2086764669.0        1479781266.0        4277003072.0        4173905453.0
 Wiener process for particle 28           1 F T F  -9.9831805544271290E-02        1465773542.0        4214934330.0        3248836976.0        1404281093.0        2649180592.0         311140686.0        3217706054.0        3907922111.0        3316415646.0         934936431.0        1155310743.0        1383590847.0        3217706054.0        3907922111.0        3316415646.0         934936431.0        1155310743.0        1383590847.0