 # Version information for this restart file 
 # current date 2025-04-24 23:34:08.145
 # current working dir /home/louimatt/projects/comp_chem_project/ucl3_md_new
 # Program compiled at                              Mon Feb  5 13:19:46 MST 2024
 # Program compiled on                                             sawtoothbuild
 # Program compiled for                                                    local
 # Source code revision number                                       git:b4a17a5
 &GLOBAL
   PRINT_LEVEL LOW
   PROJECT_NAME "UCl3_md"
   RUN_TYPE MD
 &END GLOBAL
 &MOTION
   &MD
     ENSEMBLE NVT
     STEPS 10000
     TIMESTEP  1.9999999999999998E+000
     STEP_START_VAL 1500
     TIME_START_VAL  3.0000000000000305E+003
     ECONS_START_VAL -4.1379789718276179E+003
     TEMPERATURE  1.2500000000000002E+003
     &THERMOSTAT
       TYPE AD_LANGEVIN
       REGION MASSIVE
       &AD_LANGEVIN
         TIMECON_NH  9.9999999999999986E+001
         TIMECON_LANGEVIN  2.4999999999999996E+000
         &CHI
             5.8374619131917986E-003
             2.7243827006841856E-003
            -4.1102358829242687E-003
             1.9988233091537883E-003
             2.0161416473292327E-003
             1.9027237413441953E-002
             8.7021994630539362E-003
            -6.5682380689003228E-005
            -2.0337196948946454E-002
             2.0364902105145482E-003
            -1.6659008058507275E-002
            -3.1104789394606298E-003
            -9.9870888533781059E-003
             5.3603900936275827E-003
            -1.0623719897444728E-002
             6.0498158657833557E-003
            -2.2699525787660685E-003
             7.1665707729515558E-003
             3.3020659569505133E-004
             1.0840187601325733E-002
             2.2362378767607927E-003
             7.7968480731085352E-003
            -1.9348656822065018E-003
             1.2562209737172628E-002
             1.1532396586023514E-003
             4.4451188308865519E-003
            -4.2490047968062345E-003
             8.1893140968571369E-004
             1.4895186083231524E-002
             5.2351039119402634E-003
            -1.5325113815729062E-002
            -2.7978987439140159E-003
             5.3511620423448798E-003
             1.5784998191060415E-002
            -4.6030505720415262E-003
            -3.1089342003111039E-004
             3.4936260933685760E-003
            -1.0690019983640466E-003
             1.3882050821713507E-003
            -6.7759959237003679E-003
            -3.8311839073248521E-003
             4.1700972594958851E-003
            -3.7956838713190939E-003
             7.4332828436114422E-003
            -6.5477928856566905E-003
            -1.1081140054377551E-002
             1.0548377198759886E-002
             6.8078077181703747E-003
            -5.0587038132087294E-004
            -1.4812183767648566E-002
             6.3474636349025650E-004
            -6.7601504583209482E-004
             8.9537436581311417E-003
             9.7891466982368697E-003
            -3.7216864404289967E-003
             1.5496705484289736E-002
             1.3171657648579405E-002
            -1.2751185228141339E-002
             3.8296280120399427E-003
             1.1423840477211553E-002
            -4.6418631209255596E-004
            -4.2397949073969916E-003
             7.7208697345250528E-003
            -6.0746130530081534E-004
             8.0338176047472388E-003
             1.0287248701368806E-002
            -2.3645351213824665E-002
             1.0797545873267292E-003
             6.1827689344398570E-003
            -4.1195651471165259E-003
            -2.5860271862057009E-003
             9.6627624318183190E-003
             1.9254206575206611E-002
            -1.3653831404999674E-002
             1.2210949324725478E-002
            -1.4758888720232627E-002
             1.2163151528209698E-003
            -9.2040022364941014E-003
             3.2002687903753763E-003
             1.1616149952133237E-003
             6.8225864314623045E-003
             8.7811228714578995E-003
             1.1617276447658526E-002
            -1.0663076319511446E-002
            -2.0706286266285638E-003
            -8.8194024717913669E-003
            -4.8172872673516417E-003
            -1.3819290215018784E-002
             6.5901392740629382E-003
             7.8553449963390479E-003
             3.3722563312313700E-002
             2.7256707693964028E-003
             1.8719554912174684E-003
             8.5037402605767625E-003
             1.9052799595868419E-002
             6.2029373743561619E-003
             4.4982271580258819E-003
            -2.3283404134925982E-003
             9.2139352941166697E-003
             6.3555154696798418E-003
             2.3396260363559331E-003
            -9.6089747124989463E-003
             1.0868995562889902E-002
             7.7399577232832627E-003
             9.9109040610906845E-003
            -7.7343988340209454E-004
            -1.1287676797940771E-002
             6.3189450338052497E-003
            -7.8309632940076722E-003
             2.4806373444036453E-003
             3.8389795254884468E-003
            -8.9570744686694233E-003
            -1.2933262648948970E-002
             2.6139033305738173E-003
             7.6479332058613896E-004
             6.9422706285873536E-003
             3.3256351599895138E-003
            -1.7165945618987069E-003
            -5.2821710672170041E-003
            -1.2927756884989778E-003
            -1.1828415634912569E-002
             1.4721653983556973E-003
             7.0462604177640078E-003
             6.8560600469928252E-003
             6.9701372839311966E-003
             1.0283171088096029E-002
             8.2822133784751090E-003
             1.4662480017531593E-002
            -2.0885087365864661E-003
            -1.4730391127032890E-002
             1.7727363078948150E-002
            -7.9730724511448500E-005
            -1.5533685238189649E-002
            -1.1242558152642735E-002
            -1.6949047537443411E-002
            -1.3316677928526582E-003
             4.9286398037174401E-003
             1.0493099644736241E-002
             6.6816294914549650E-003
            -5.4554747146751273E-003
             2.5369508574466897E-003
            -7.9422332320591461E-003
            -4.2487840618102585E-003
            -9.4201626252376856E-003
             1.0897990726452559E-002
            -6.6705182787559535E-003
            -1.0716396595316702E-002
            -9.7719531008366202E-004
             2.7091573305374470E-003
             4.9549767856490621E-003
            -1.2451932820137237E-002
             1.1645649608625424E-002
             6.6307295009206714E-003
            -1.9293229924311660E-002
            -6.6072168652346747E-003
            -3.0067088584053384E-003
            -6.3637470975645455E-004
            -5.5748694880483670E-003
             5.5620778854712288E-003
            -1.4009339756155639E-003
             2.8789010208145407E-002
             1.6355039699738984E-002
             1.9108094908478806E-003
            -3.4449533189905134E-003
            -3.2036338078734895E-003
            -7.2921098868948021E-003
            -8.7318713626046817E-004
            -2.8464286322894102E-002
             1.5294125597214273E-002
            -1.8360577790004846E-002
             4.8363924689604773E-003
             9.7351498483886720E-003
            -1.9844284928242457E-003
             1.3365667562610411E-002
            -1.0639134013836487E-002
             2.4456350565155337E-002
             5.3311030534698134E-005
             7.5533612833259477E-004
            -5.1708778352864133E-004
            -1.7990293817585639E-002
            -3.0341407507863587E-003
            -4.9175286797529935E-003
            -9.7893837803171967E-003
             1.4555065849095100E-002
             2.9953068069802232E-003
             5.4960936563680490E-003
             1.5453559741206554E-003
            -1.1800256079576129E-002
            -6.0492710340065694E-003
             7.4701587067754608E-004
             1.2447354647158482E-002
             1.5370880900882999E-003
         &END CHI
         &MASS
             2.7969677064634422E+006
             2.7969677064634422E+006
             2.7969677064634422E+006
             2.7969677064634422E+006
             2.7969677064634422E+006
             2.7969677064634422E+006
             2.7969677064634422E+006
             2.7969677064634422E+006
             2.7969677064634422E+006
             2.7969677064634422E+006
             2.7969677064634422E+006
             2.7969677064634422E+006
             2.7969677064634422E+006
             2.7969677064634422E+006
             2.7969677064634422E+006
             2.7969677064634422E+006
             2.7969677064634422E+006
             2.7969677064634422E+006
             2.7969677064634422E+006
             2.7969677064634422E+006
             2.7969677064634422E+006
             2.7969677064634422E+006
             2.7969677064634422E+006
             2.7969677064634422E+006
             2.7969677064634422E+006
             2.7969677064634422E+006
             2.7969677064634422E+006
             2.7969677064634422E+006
             2.7969677064634422E+006
             2.7969677064634422E+006
             2.7969677064634422E+006
             2.7969677064634422E+006
             2.7969677064634422E+006
             2.7969677064634422E+006
             2.7969677064634422E+006
             2.7969677064634422E+006
             2.7969677064634422E+006
             2.7969677064634422E+006
             2.7969677064634422E+006
             2.7969677064634422E+006
             2.7969677064634422E+006
             2.7969677064634422E+006
             2.7969677064634422E+006
             2.7969677064634422E+006
             2.7969677064634422E+006
             2.7969677064634422E+006
             2.7969677064634422E+006
             2.7969677064634422E+006
             2.7969677064634422E+006
             2.7969677064634422E+006
             2.7969677064634422E+006
             2.7969677064634422E+006
             2.7969677064634422E+006
             2.7969677064634422E+006
             2.7969677064634422E+006
             2.7969677064634422E+006
             2.7969677064634422E+006
             2.7969677064634422E+006
             2.7969677064634422E+006
             2.7969677064634422E+006
             2.7969677064634422E+006
             2.7969677064634422E+006
             2.7969677064634422E+006
             2.7969677064634422E+006
             2.7969677064634422E+006
             2.7969677064634422E+006
             2.7969677064634422E+006
             2.7969677064634422E+006
             2.7969677064634422E+006
             2.7969677064634422E+006
             2.7969677064634422E+006
             2.7969677064634422E+006
             2.7969677064634422E+006
             2.7969677064634422E+006
             2.7969677064634422E+006
             2.7969677064634422E+006
             2.7969677064634422E+006
             2.7969677064634422E+006
             2.7969677064634422E+006
             2.7969677064634422E+006
             2.7969677064634422E+006
             2.7969677064634422E+006
             2.7969677064634422E+006
             2.7969677064634422E+006
             2.7969677064634422E+006
             2.7969677064634422E+006
             2.7969677064634422E+006
             2.7969677064634422E+006
             2.7969677064634422E+006
             2.7969677064634422E+006
             2.7969677064634422E+006
             2.7969677064634422E+006
             2.7969677064634422E+006
             2.7969677064634422E+006
             2.7969677064634422E+006
             2.7969677064634422E+006
             2.7969677064634422E+006
             2.7969677064634422E+006
             2.7969677064634422E+006
             2.7969677064634422E+006
             2.7969677064634422E+006
             2.7969677064634422E+006
             2.7969677064634422E+006
             2.7969677064634422E+006
             2.7969677064634422E+006
             2.7969677064634422E+006
             2.7969677064634422E+006
             2.7969677064634422E+006
             2.7969677064634422E+006
             2.7969677064634422E+006
             2.7969677064634422E+006
             2.7969677064634422E+006
             2.7969677064634422E+006
             2.7969677064634422E+006
             2.7969677064634422E+006
             2.7969677064634422E+006
             2.7969677064634422E+006
             2.7969677064634422E+006
             2.7969677064634422E+006
             2.7969677064634422E+006
             2.7969677064634422E+006
             2.7969677064634422E+006
             2.7969677064634422E+006
             2.7969677064634422E+006
             2.7969677064634422E+006
             2.7969677064634422E+006
             2.7969677064634422E+006
             2.7969677064634422E+006
             2.7969677064634422E+006
             2.7969677064634422E+006
             2.7969677064634422E+006
             2.7969677064634422E+006
             2.7969677064634422E+006
             2.7969677064634422E+006
             2.7969677064634422E+006
             2.7969677064634422E+006
             2.7969677064634422E+006
             2.7969677064634422E+006
             2.7969677064634422E+006
             2.7969677064634422E+006
             2.7969677064634422E+006
             2.7969677064634422E+006
             2.7969677064634422E+006
             2.7969677064634422E+006
             2.7969677064634422E+006
             2.7969677064634422E+006
             2.7969677064634422E+006
             2.7969677064634422E+006
             2.7969677064634422E+006
             2.7969677064634422E+006
             2.7969677064634422E+006
             2.7969677064634422E+006
             2.7969677064634422E+006
             2.7969677064634422E+006
             2.7969677064634422E+006
             2.7969677064634422E+006
             2.7969677064634422E+006
             2.7969677064634422E+006
             2.7969677064634422E+006
             2.7969677064634422E+006
             2.7969677064634422E+006
             2.7969677064634422E+006
             2.7969677064634422E+006
             2.7969677064634422E+006
             2.7969677064634422E+006
             2.7969677064634422E+006
             2.7969677064634422E+006
             2.7969677064634422E+006
             2.7969677064634422E+006
             2.7969677064634422E+006
             2.7969677064634422E+006
             2.7969677064634422E+006
             2.7969677064634422E+006
             2.7969677064634422E+006
             2.7969677064634422E+006
             2.7969677064634422E+006
             2.7969677064634422E+006
             2.7969677064634422E+006
             2.7969677064634422E+006
             2.7969677064634422E+006
             2.7969677064634422E+006
             2.7969677064634422E+006
             2.7969677064634422E+006
             2.7969677064634422E+006
             2.7969677064634422E+006
             2.7969677064634422E+006
             2.7969677064634422E+006
             2.7969677064634422E+006
             2.7969677064634422E+006
             2.7969677064634422E+006
             2.7969677064634422E+006
             2.7969677064634422E+006
         &END MASS
       &END AD_LANGEVIN
     &END THERMOSTAT
     &AVERAGES T
       &RESTART_AVERAGES
         ITIMES_START 1
         AVECPU  8.2786871008621020E+001
         AVEHUGONIOT  0.0000000000000000E+000
         AVETEMP_BARO  0.0000000000000000E+000
         AVEPOT -4.1427455908849088E+003
         AVEKIN  3.8154023580141333E-001
         AVETEMP  1.2550076418853942E+003
         AVEKIN_QM  0.0000000000000000E+000
         AVETEMP_QM  0.0000000000000000E+000
         AVEVOL  1.2804379601851508E+004
         AVECELL_A  2.3394809525124248E+001
         AVECELL_B  2.3394809525124248E+001
         AVECELL_C  2.3394809525124248E+001
         AVEALPHA  9.0000000000000000E+001
         AVEBETA  9.0000000000000000E+001
         AVEGAMMA  9.0000000000000000E+001
         AVE_ECONS -2.1635238079287170E+004
         AVE_PRESS  0.0000000000000000E+000
         AVE_PXX  0.0000000000000000E+000
       &END RESTART_AVERAGES
     &END AVERAGES
   &END MD
   &PRINT
     &TRAJECTORY SILENT
       FILENAME ucl3_md.xyz
       FORMAT XMOL
       &EACH
         MD 10
       &END EACH
     &END TRAJECTORY
     &VELOCITIES ON
     &END VELOCITIES
   &END PRINT
 &END MOTION
 &FORCE_EVAL
   METHOD QS
   &DFT
     BASIS_SET_FILE_NAME BASIS_MOLOPT
     BASIS_SET_FILE_NAME BASIS_MOLOPT_AcPP1
     POTENTIAL_FILE_NAME CUSTOM_POTENTIALS
     PLUS_U_METHOD LOWDIN
     &SCF
       MAX_SCF 10000
       EPS_SCF  2.9999999999999999E-007
       SCF_GUESS RESTART
       &OT T
         MINIMIZER CG
         PRECONDITIONER FULL_SINGLE_INVERSE
         ENERGY_GAP  1.0000000000000001E-001
       &END OT
     &END SCF
     &QS
       EPS_DEFAULT  1.0000000000000000E-010
     &END QS
     &MGRID
       NGRIDS 4
       CUTOFF  4.5000000000000000E+002
       REL_CUTOFF  6.0000000000000000E+001
     &END MGRID
     &XC
       DENSITY_CUTOFF  1.0000000000000000E-010
       GRADIENT_CUTOFF  1.0000000000000000E-010
       TAU_CUTOFF  1.0000000000000000E-010
       &XC_FUNCTIONAL NO_SHORTCUT
         &PBE T
         &END PBE
       &END XC_FUNCTIONAL
     &END XC
   &END DFT
   &SUBSYS
     &RNG_INIT
 Wiener process for particle 1            1 F T F  -2.6755093921943879E-01        4144235242.0        2585569407.0        2426648540.0        3371072432.0        1462612250.0        1694140367.0             12345.0             12345.0             12345.0             12345.0             12345.0             12345.0             12345.0             12345.0             12345.0             12345.0             12345.0             12345.0
 Wiener process for particle 2            1 F T F   3.0113252136418195E-01           6712624.0         755673995.0         781870025.0        2096802779.0         845468098.0         570093600.0        3692455944.0        1366884236.0        2968912127.0         335948734.0        4161675175.0         475798818.0        3692455944.0        1366884236.0        2968912127.0         335948734.0        4161675175.0         475798818.0
 Wiener process for particle 3            1 F T F   9.2695989436764514E-01         423016521.0        2002665502.0        2396059072.0         123568116.0        3313016976.0        4200785038.0        1015873554.0        1310354410.0        2249465273.0         994084013.0        2912484720.0        3876682925.0        1015873554.0        1310354410.0        2249465273.0         994084013.0        2912484720.0        3876682925.0
 Wiener process for particle 4            1 F T F   3.6883035315230815E-02        3568650290.0        1478130296.0         132693925.0        3426519156.0        3575290535.0         388677396.0        2338701263.0        1119171942.0        2570676563.0         317077452.0        3194180850.0         618832124.0        2338701263.0        1119171942.0        2570676563.0         317077452.0        3194180850.0         618832124.0
 Wiener process for particle 5            1 F T F   2.4894213870463111E+00        2248365206.0        2065833684.0        2460531924.0        1934628424.0        3800951923.0        1977693603.0        1597262096.0        3906379055.0        3312112953.0        1016013135.0        4099474108.0         275305423.0        1597262096.0        3906379055.0        3312112953.0        1016013135.0        4099474108.0         275305423.0
 Wiener process for particle 6            1 F T F  -3.1546853207490894E-01        2620559463.0        2781909752.0        3853040910.0        3840226590.0        1034284478.0          89261706.0          97147054.0        3131372450.0         829345164.0        3691032523.0        3006063034.0        4259826321.0          97147054.0        3131372450.0         829345164.0        3691032523.0        3006063034.0        4259826321.0
 Wiener process for particle 7            1 F T F   6.5940932567715649E-01        1455443857.0        1568727283.0        1984584073.0         787749822.0        3363946183.0        1100172138.0         796079799.0        2105258207.0         955365076.0        2923159030.0        4116632677.0        3067683584.0         796079799.0        2105258207.0         955365076.0        2923159030.0        4116632677.0        3067683584.0
 Wiener process for particle 8            1 F T F   4.6043536840648158E-01        1987651863.0        3967780056.0         555142580.0        2984858056.0         871242262.0        2454399613.0        3281794178.0        2616230133.0        1457051261.0        2762791137.0        2480527362.0        2282316169.0        3281794178.0        2616230133.0        1457051261.0        2762791137.0        2480527362.0        2282316169.0
 Wiener process for particle 9            1 F T F   1.2677678451405632E+00        3659319432.0        1891532831.0        2703300895.0        2464177542.0        2608716239.0        2795587100.0        3777646647.0        1837464056.0        4204654757.0         664239048.0        4190510072.0        2959195122.0        3777646647.0        1837464056.0        4204654757.0         664239048.0        4190510072.0        2959195122.0
 Wiener process for particle 10           1 F T F   1.1488011023044860E+00        4043431187.0        1827197581.0        3383851734.0         348475335.0        2840327362.0         723836862.0        4215590817.0        3862461878.0        1087200967.0        1544910132.0         936383720.0        1611370123.0        4215590817.0        3862461878.0        1087200967.0        1544910132.0         936383720.0        1611370123.0
 Wiener process for particle 11           1 F T F  -1.8840839601774834E-01          14535811.0        1475857872.0        1032383544.0         290152164.0        3724877887.0        3693213936.0        1683636369.0         362165168.0         814316280.0         869382050.0         980203903.0        2062101717.0        1683636369.0         362165168.0         814316280.0         869382050.0         980203903.0        2062101717.0
 Wiener process for particle 12           1 F T F  -2.1530334639340934E-01        2223928005.0        1267165362.0        4252280349.0        1919053255.0         802345637.0        3662016103.0         272317999.0         166758548.0         310112982.0         201045826.0        1680231254.0         118290799.0         272317999.0         166758548.0         310112982.0         201045826.0        1680231254.0         118290799.0
 Wiener process for particle 13           1 F T F   4.8500795747809300E-01        3731971283.0         454208411.0        2077711512.0        3402968516.0         818080636.0        2969058251.0        2245755202.0        1652682525.0        2865544364.0         721509566.0         209733568.0         592362218.0        2245755202.0        1652682525.0        2865544364.0         721509566.0         209733568.0         592362218.0
 Wiener process for particle 14           1 F T F  -1.6508550334665899E+00        1906042049.0        4168619029.0         314996458.0          99646994.0        2858162374.0         708784773.0        3003961408.0        3529909391.0          14538032.0        3603919910.0         566682685.0        1235016484.0        3003961408.0        3529909391.0          14538032.0        3603919910.0         566682685.0        1235016484.0
 Wiener process for particle 15           1 F T F   1.4789053457691570E+00        2984735309.0        1602025628.0        3170864501.0        3474695848.0        2562041438.0         762969972.0         596094074.0        2279636413.0        3050913596.0        1739649456.0        2368706608.0        3058697049.0         596094074.0        2279636413.0        3050913596.0        1739649456.0        2368706608.0        3058697049.0
 Wiener process for particle 16           1 F T F   8.6538019723910342E-01          73296655.0         563059314.0         520769422.0        2203183922.0        2132925542.0        1109787894.0        1437096527.0        2547142266.0        2541498983.0        2640839690.0        2160978219.0        2618657830.0        1437096527.0        2547142266.0        2541498983.0        2640839690.0        2160978219.0        2618657830.0
 Wiener process for particle 17           1 F T F   9.6272423393193224E-02        3577443384.0        3489435438.0         819330908.0        1537832915.0         698804169.0        1598907379.0        3224044943.0        1227141655.0        2220611050.0        1504589054.0        2829780440.0         108189859.0        3224044943.0        1227141655.0        2220611050.0        1504589054.0        2829780440.0         108189859.0
 Wiener process for particle 18           1 F T F  -5.7457269713837600E-01        1588442652.0        1105784168.0        3328807907.0        3514008518.0         719098780.0        2625027741.0         927434978.0        1593504038.0        2143021818.0        1749489845.0        1330187821.0        2371554242.0         927434978.0        1593504038.0        2143021818.0        1749489845.0        1330187821.0        2371554242.0
 Wiener process for particle 19           1 F T F   1.0699664100997450E+00        3573755862.0        1485970732.0         128064339.0        2813829337.0        2305425622.0        3711940397.0        3446225690.0         835741554.0        2195834023.0        1297741021.0        3357053382.0         383824268.0        3446225690.0         835741554.0        2195834023.0        1297741021.0        3357053382.0         383824268.0
 Wiener process for particle 20           1 F T F   1.4120963838649148E+00        3446315784.0        1628171274.0        3588297442.0        1520897995.0        2474904372.0         839380730.0        3984477137.0        1267973573.0        3770063761.0         216527865.0        1568537936.0        1200352663.0        3984477137.0        1267973573.0        3770063761.0         216527865.0        1568537936.0        1200352663.0
 Wiener process for particle 21           1 F T F  -7.5782959257214200E-01        4237688159.0        2693994899.0        1859972267.0        3364585219.0        2401396811.0          92734371.0        2503334853.0        3179736892.0        2080184241.0        2881517721.0        3611607237.0        2639045213.0        2503334853.0        3179736892.0        2080184241.0        2881517721.0        3611607237.0        2639045213.0
 Wiener process for particle 22           1 F T F  -6.9654698219272793E-01        2692260934.0        2919410250.0        3763811858.0         186259008.0        2475313327.0         475908765.0        2784301963.0        3004110709.0        4065265451.0        2351994899.0        1824839263.0        1473060447.0        2784301963.0        3004110709.0        4065265451.0        2351994899.0        1824839263.0        1473060447.0
 Wiener process for particle 23           1 F T F   3.5970025171682213E-01        3784930353.0         969925170.0        2076404728.0        2629027768.0        2769212031.0        1269703812.0        3645411182.0        1391027122.0        3995023402.0         536114258.0        1376034799.0        2391282907.0        3645411182.0        1391027122.0        3995023402.0         536114258.0        1376034799.0        2391282907.0
 Wiener process for particle 24           1 F T F   4.0846321454186157E-01        1018105799.0        3406040548.0        2128331502.0        2605236069.0        4107188215.0        3601171172.0        4205039797.0        2998067142.0        2737381050.0        2060484144.0          21123025.0         900610517.0        4205039797.0        2998067142.0        2737381050.0        2060484144.0          21123025.0         900610517.0
 Wiener process for particle 25           1 F T F  -4.3180451440108458E-01        4097006766.0        2756747405.0        2855331795.0        1932991571.0        1612752175.0        3969021064.0        1708138263.0        1103344630.0        3131738563.0         354874525.0        1462105562.0        2799820805.0        1708138263.0        1103344630.0        3131738563.0         354874525.0        1462105562.0        2799820805.0
 Wiener process for particle 26           1 F T F  -2.0030103235224024E+00        3877407533.0        1579366687.0        2526603927.0         587879515.0        4150594357.0         220919885.0        1762624356.0        3338520614.0        1869672149.0        2420033342.0        3823777008.0        4112813433.0        1762624356.0        3338520614.0        1869672149.0        2420033342.0        3823777008.0        4112813433.0
 Wiener process for particle 27           1 F T F   4.7639912033751819E-01        3690428831.0        1980519816.0        1216382379.0        3379017403.0        2126723621.0        2519678979.0        1406960847.0        2689758640.0        2086764669.0        1479781266.0        4277003072.0        4173905453.0        1406960847.0        2689758640.0        2086764669.0        1479781266.0        4277003072.0        4173905453.0
 Wiener process for particle 28           1 F T F  -1.6845802545188859E+00        2168489359.0        2994781138.0        1236338817.0        1855057765.0        1664892363.0        3481149936.0        3217706054.0        3907922111.0        3316415646.0         934936431.0        1155310743.0        1383590847.0        3217706054.0        3907922111.0        3316415646.0         934936431.0        1155310743.0        1383590847.0
 Wiener process for particle 29           1 F T F  -5.7543959527637190E-01        2181974470.0        1483883378.0        3199213544.0        2014478432.0         580166901.0        1825829632.0        2996242832.0        2506376012.0        1182520337.0         938957435.0        3286002927.0        1946707306.0        2996242832.0        2506376012.0        1182520337.0         938957435.0        3286002927.0        1946707306.0