 # Version information for this restart file 
 # current date 2025-04-28 11:56:11.833
 # current working dir /home/louimatt/projects/comp_chem_project/ucl3_md_new
 # Program compiled at                              Mon Feb  5 13:19:46 MST 2024
 # Program compiled on                                             sawtoothbuild
 # Program compiled for                                                    local
 # Source code revision number                                       git:b4a17a5
 &GLOBAL
   PRINT_LEVEL LOW
   PROJECT_NAME "UCl3_md"
   RUN_TYPE MD
 &END GLOBAL
 &MOTION
   &MD
     ENSEMBLE NVT
     STEPS 10000
     TIMESTEP  1.9999999999999998E+000
     STEP_START_VAL 4520
     TIME_START_VAL  9.0399999999992688E+003
     ECONS_START_VAL -4.1379789718276179E+003
     TEMPERATURE  1.2500000000000002E+003
     &THERMOSTAT
       TYPE AD_LANGEVIN
       REGION MASSIVE
       &AD_LANGEVIN
         TIMECON_NH  9.9999999999999986E+001
         TIMECON_LANGEVIN  2.4999999999999996E+000
         &CHI
             5.2785649666452980E-003
            -2.0126267837991554E-002
            -5.6854994213753696E-003
             2.3720084733162318E-003
             1.0039964525577358E-002
             1.0920960009622679E-003
            -6.3937074980354126E-003
            -2.4280766071270209E-003
            -4.1495197291935059E-003
            -1.4859890193309858E-002
             1.0529330153439860E-002
             5.4524143860511754E-003
             1.8774604156964733E-002
             6.9867609301831344E-003
            -7.8476180245821997E-005
            -4.0310412797792301E-003
            -1.1680527944326159E-002
            -8.8110491919066846E-003
            -6.0637906910113309E-003
             6.7548106350734331E-003
            -4.4965179195136469E-003
             5.0886495631210565E-003
            -2.3662521005452892E-003
            -1.6964803714253273E-004
            -1.8038378592850676E-002
             1.2781555679544183E-003
             1.4069630189675999E-002
             1.9888060037607227E-003
             2.4341814245463052E-002
             7.2712522325711875E-004
             9.5933268065782310E-004
            -1.4607289198931400E-002
             1.1199653370532813E-002
            -7.9306481909914919E-003
            -5.3345785946568138E-003
            -1.2864997052033514E-002
            -1.4465512513023072E-002
             6.2243143991364616E-003
            -1.3825712898701948E-002
            -5.6591759034412444E-003
            -2.1283450124951333E-002
             1.2184076791094902E-002
             1.0352219905916452E-002
             1.2678178047881941E-002
             2.4407040237766443E-004
             1.1584565726737875E-002
            -3.3983601399823985E-003
            -8.2828305104506929E-004
             3.3257903614295017E-003
            -5.0064888146253116E-003
            -3.8588452342404192E-003
             3.9384593515101205E-003
             8.6150107621492493E-003
             5.8836982033001082E-003
             1.2173189431843423E-002
            -2.6046352587991763E-004
            -1.3404940364877799E-002
            -1.5604239292451754E-002
             2.3462936204279677E-002
             1.2725987557201855E-002
             8.1958836731221077E-003
             4.3567065094303470E-003
             4.6826544080843038E-003
            -3.1429411686046820E-004
            -6.3143495616317874E-003
             8.8678457295578647E-003
            -1.7069966504102543E-002
            -2.1393530114254870E-002
            -7.1880723162612648E-003
            -9.7653772235645562E-003
             1.6657867137309097E-003
            -9.1708452290639626E-003
             1.4942167451047109E-002
             8.9810305348991225E-003
             1.2425336047039433E-003
            -9.4493008221647537E-003
            -2.4782656284121482E-003
            -1.7862908111642924E-002
            -6.6160139891310510E-003
            -1.1892230718736203E-002
            -2.0505832627867194E-003
             1.8193520490825208E-002
             1.0719731741578116E-002
             6.1656653405413485E-003
             4.5746107559067667E-003
             2.3670336048882924E-003
             7.0845627105968262E-003
             1.1299069449725176E-002
            -1.6002080694775420E-002
             2.6407477867898214E-002
             3.3080923746754949E-003
             9.6063356608565263E-003
             6.4118719967092416E-003
             8.3362975164625059E-003
            -1.2193805758149351E-002
             6.2129683652035091E-003
            -2.0963775958153970E-002
             3.8545997247260450E-003
            -3.8858169646480939E-003
             3.0858231443653874E-002
             1.2199345965900159E-003
             4.6832420844909800E-003
             7.7907840855535003E-003
             8.4416750636094086E-003
             3.3459180454647364E-003
            -5.5431937691753511E-003
             2.6703030121249401E-003
             1.3224366866727781E-002
            -1.6963095993437652E-003
             3.9894848465855972E-005
             1.6840448299261745E-002
             1.6600312907921352E-002
             1.0116066993615053E-002
            -1.3154939578063859E-003
             1.0701385711875275E-002
             1.4349461858818611E-002
            -2.0217117080011858E-002
            -7.4943961914596922E-003
            -6.0902129839639360E-004
             1.8974907530302418E-003
             9.4327072400050629E-003
            -1.8877600415631354E-002
            -3.3375998946891493E-003
            -6.5311003184027943E-003
            -5.5800033095504912E-003
             1.5075807605903371E-002
             7.0097904779530011E-003
             5.2972610212942686E-003
             2.7074824359861534E-002
            -1.6927363483508106E-002
            -2.6354154511952872E-003
             3.5719169412109617E-003
            -9.4543206200517309E-003
            -7.2634438246565484E-003
            -3.1832597515290877E-002
            -6.1740809666007233E-003
            -4.9489736387013875E-003
            -1.4949570819331474E-003
             3.2073632945098197E-003
             1.1425301024046217E-002
             2.6107507672479872E-002
            -5.2487233395490124E-003
            -6.0660836213981490E-003
            -9.5704602266120167E-003
             1.4745135468014087E-002
             4.2027150615958700E-003
            -4.9156451356835787E-003
             1.4331944918655429E-003
             1.5612746599372685E-003
            -6.5373398014805361E-003
             2.4592033881306635E-003
             7.9708695088373232E-003
             2.3413165531979481E-002
             1.0476841742617761E-002
             6.1215428207950522E-004
            -4.5120730684295174E-003
            -7.1317043883548092E-003
            -2.1572619638580075E-002
             1.1760318647636065E-002
             1.0952815484680320E-002
             2.0669338652592531E-003
            -1.3102683993700220E-002
             2.7168337505666801E-003
            -1.2348979118074697E-002
            -7.0045481548640879E-003
             4.3845062248249684E-003
             1.3695992049898428E-003
            -3.3121324360576576E-003
            -1.8304534150215615E-002
            -7.0631388624003639E-003
            -7.0194025961287931E-003
             4.0890199115877299E-003
            -1.2860135906754474E-002
            -6.8919181176144862E-003
            -1.0220711877224514E-002
             1.2686417491775851E-002
            -1.0034889182446081E-002
            -9.3438723624270238E-003
             4.0055250321989868E-003
            -1.4510082996074375E-002
             1.7794350678218211E-002
            -1.8486964042441063E-002
             2.6818777039567961E-003
             2.3872263687697601E-003
            -7.8711436589512501E-003
            -5.0879239375413087E-003
             1.0940530355966704E-002
            -1.2136684928213966E-002
             2.1509772789190295E-003
            -1.1370097646975295E-002
            -5.5746652039460921E-003
            -5.7490579404498214E-003
         &END CHI
         &MASS
             2.7969677064634417E+006
             2.7969677064634417E+006
             2.7969677064634417E+006
             2.7969677064634417E+006
             2.7969677064634417E+006
             2.7969677064634417E+006
             2.7969677064634417E+006
             2.7969677064634417E+006
             2.7969677064634417E+006
             2.7969677064634417E+006
             2.7969677064634417E+006
             2.7969677064634417E+006
             2.7969677064634417E+006
             2.7969677064634417E+006
             2.7969677064634417E+006
             2.7969677064634417E+006
             2.7969677064634417E+006
             2.7969677064634417E+006
             2.7969677064634417E+006
             2.7969677064634417E+006
             2.7969677064634417E+006
             2.7969677064634417E+006
             2.7969677064634417E+006
             2.7969677064634417E+006
             2.7969677064634417E+006
             2.7969677064634417E+006
             2.7969677064634417E+006
             2.7969677064634417E+006
             2.7969677064634417E+006
             2.7969677064634417E+006
             2.7969677064634417E+006
             2.7969677064634417E+006
             2.7969677064634417E+006
             2.7969677064634417E+006
             2.7969677064634417E+006
             2.7969677064634417E+006
             2.7969677064634417E+006
             2.7969677064634417E+006
             2.7969677064634417E+006
             2.7969677064634417E+006
             2.7969677064634417E+006
             2.7969677064634417E+006
             2.7969677064634417E+006
             2.7969677064634417E+006
             2.7969677064634417E+006
             2.7969677064634417E+006
             2.7969677064634417E+006
             2.7969677064634417E+006
             2.7969677064634417E+006
             2.7969677064634417E+006
             2.7969677064634417E+006
             2.7969677064634417E+006
             2.7969677064634417E+006
             2.7969677064634417E+006
             2.7969677064634417E+006
             2.7969677064634417E+006
             2.7969677064634417E+006
             2.7969677064634417E+006
             2.7969677064634417E+006
             2.7969677064634417E+006
             2.7969677064634417E+006
             2.7969677064634417E+006
             2.7969677064634417E+006
             2.7969677064634417E+006
             2.7969677064634417E+006
             2.7969677064634417E+006
             2.7969677064634417E+006
             2.7969677064634417E+006
             2.7969677064634417E+006
             2.7969677064634417E+006
             2.7969677064634417E+006
             2.7969677064634417E+006
             2.7969677064634417E+006
             2.7969677064634417E+006
             2.7969677064634417E+006
             2.7969677064634417E+006
             2.7969677064634417E+006
             2.7969677064634417E+006
             2.7969677064634417E+006
             2.7969677064634417E+006
             2.7969677064634417E+006
             2.7969677064634417E+006
             2.7969677064634417E+006
             2.7969677064634417E+006
             2.7969677064634417E+006
             2.7969677064634417E+006
             2.7969677064634417E+006
             2.7969677064634417E+006
             2.7969677064634417E+006
             2.7969677064634417E+006
             2.7969677064634417E+006
             2.7969677064634417E+006
             2.7969677064634417E+006
             2.7969677064634417E+006
             2.7969677064634417E+006
             2.7969677064634417E+006
             2.7969677064634417E+006
             2.7969677064634417E+006
             2.7969677064634417E+006
             2.7969677064634417E+006
             2.7969677064634417E+006
             2.7969677064634417E+006
             2.7969677064634417E+006
             2.7969677064634417E+006
             2.7969677064634417E+006
             2.7969677064634417E+006
             2.7969677064634417E+006
             2.7969677064634417E+006
             2.7969677064634417E+006
             2.7969677064634417E+006
             2.7969677064634417E+006
             2.7969677064634417E+006
             2.7969677064634417E+006
             2.7969677064634417E+006
             2.7969677064634417E+006
             2.7969677064634417E+006
             2.7969677064634417E+006
             2.7969677064634417E+006
             2.7969677064634417E+006
             2.7969677064634417E+006
             2.7969677064634417E+006
             2.7969677064634417E+006
             2.7969677064634417E+006
             2.7969677064634417E+006
             2.7969677064634417E+006
             2.7969677064634417E+006
             2.7969677064634417E+006
             2.7969677064634417E+006
             2.7969677064634417E+006
             2.7969677064634417E+006
             2.7969677064634417E+006
             2.7969677064634417E+006
             2.7969677064634417E+006
             2.7969677064634417E+006
             2.7969677064634417E+006
             2.7969677064634417E+006
             2.7969677064634417E+006
             2.7969677064634417E+006
             2.7969677064634417E+006
             2.7969677064634417E+006
             2.7969677064634417E+006
             2.7969677064634417E+006
             2.7969677064634417E+006
             2.7969677064634417E+006
             2.7969677064634417E+006
             2.7969677064634417E+006
             2.7969677064634417E+006
             2.7969677064634417E+006
             2.7969677064634417E+006
             2.7969677064634417E+006
             2.7969677064634417E+006
             2.7969677064634417E+006
             2.7969677064634417E+006
             2.7969677064634417E+006
             2.7969677064634417E+006
             2.7969677064634417E+006
             2.7969677064634417E+006
             2.7969677064634417E+006
             2.7969677064634417E+006
             2.7969677064634417E+006
             2.7969677064634417E+006
             2.7969677064634417E+006
             2.7969677064634417E+006
             2.7969677064634417E+006
             2.7969677064634417E+006
             2.7969677064634417E+006
             2.7969677064634417E+006
             2.7969677064634417E+006
             2.7969677064634417E+006
             2.7969677064634417E+006
             2.7969677064634417E+006
             2.7969677064634417E+006
             2.7969677064634417E+006
             2.7969677064634417E+006
             2.7969677064634417E+006
             2.7969677064634417E+006
             2.7969677064634417E+006
             2.7969677064634417E+006
             2.7969677064634417E+006
             2.7969677064634417E+006
             2.7969677064634417E+006
             2.7969677064634417E+006
             2.7969677064634417E+006
             2.7969677064634417E+006
             2.7969677064634417E+006
             2.7969677064634417E+006
             2.7969677064634417E+006
             2.7969677064634417E+006
             2.7969677064634417E+006
             2.7969677064634417E+006
             2.7969677064634417E+006
             2.7969677064634417E+006
         &END MASS
       &END AD_LANGEVIN
     &END THERMOSTAT
     &AVERAGES T
       &RESTART_AVERAGES
         ITIMES_START 1
         AVECPU  7.2101130911234051E+001
         AVEHUGONIOT  0.0000000000000000E+000
         AVETEMP_BARO  0.0000000000000000E+000
         AVEPOT -4.1431110866608860E+003
         AVEKIN  3.7983767739993640E-001
         AVETEMP  1.2494073837628853E+003
         AVEKIN_QM  0.0000000000000000E+000
         AVETEMP_QM  0.0000000000000000E+000
         AVEVOL  1.2804379601851429E+004
         AVECELL_A  2.3394809525124455E+001
         AVECELL_B  2.3394809525124455E+001
         AVECELL_C  2.3394809525124455E+001
         AVEALPHA  9.0000000000000000E+001
         AVEBETA  9.0000000000000000E+001
         AVEGAMMA  9.0000000000000000E+001
         AVE_ECONS -2.3447419982416330E+004
         AVE_PRESS  0.0000000000000000E+000
         AVE_PXX  0.0000000000000000E+000
       &END RESTART_AVERAGES
     &END AVERAGES
   &END MD
   &PRINT
     &TRAJECTORY SILENT
       FILENAME ucl3_md.xyz
       FORMAT XMOL
       &EACH
         MD 10
       &END EACH
     &END TRAJECTORY
     &VELOCITIES ON
     &END VELOCITIES
   &END PRINT
 &END MOTION
 &FORCE_EVAL
   METHOD QS
   &DFT
     BASIS_SET_FILE_NAME BASIS_MOLOPT
     BASIS_SET_FILE_NAME BASIS_MOLOPT_AcPP1
     POTENTIAL_FILE_NAME CUSTOM_POTENTIALS
     PLUS_U_METHOD LOWDIN
     &SCF
       MAX_SCF 10000
       EPS_SCF  2.9999999999999999E-007
       SCF_GUESS RESTART
       &OT T
         MINIMIZER CG
         PRECONDITIONER FULL_SINGLE_INVERSE
         ENERGY_GAP  1.0000000000000001E-001
       &END OT
     &END SCF
     &QS
       EPS_DEFAULT  1.0000000000000000E-010
     &END QS
     &MGRID
       NGRIDS 4
       CUTOFF  4.5000000000000000E+002
       REL_CUTOFF  6.0000000000000000E+001
     &END MGRID
     &XC
       DENSITY_CUTOFF  1.0000000000000000E-010
       GRADIENT_CUTOFF  1.0000000000000000E-010
       TAU_CUTOFF  1.0000000000000000E-010
       &XC_FUNCTIONAL NO_SHORTCUT
         &PBE T
         &END PBE
       &END XC_FUNCTIONAL
     &END XC
     &REAL_TIME_PROPAGATION
       INITIAL_WFN SCF_WFN
     &END REAL_TIME_PROPAGATION
   &END DFT
   &SUBSYS
     &RNG_INIT
 Wiener process for particle 1            1 F T F   1.5228936901807716E-01         375328424.0        2043779842.0         171536969.0        2185426173.0        2140067769.0        2932357262.0             12345.0             12345.0             12345.0             12345.0             12345.0             12345.0             12345.0             12345.0             12345.0             12345.0             12345.0             12345.0
 Wiener process for particle 2            1 F T F  -2.4364632692754182E-01        3171606944.0        2799512950.0        1121255317.0        3615418513.0        1328486653.0         545875294.0        3692455944.0        1366884236.0        2968912127.0         335948734.0        4161675175.0         475798818.0        3692455944.0        1366884236.0        2968912127.0         335948734.0        4161675175.0         475798818.0
 Wiener process for particle 3            1 F T F  -3.6523990207854184E-01         799254128.0        2189887690.0        1965750605.0        1931590735.0        1689867945.0        3460070978.0        1015873554.0        1310354410.0        2249465273.0         994084013.0        2912484720.0        3876682925.0        1015873554.0        1310354410.0        2249465273.0         994084013.0        2912484720.0        3876682925.0
 Wiener process for particle 4            1 F T F   1.4274932917836905E-01        3628681465.0        1216907477.0        1248103820.0        3015661090.0        1227821614.0         662764874.0        2338701263.0        1119171942.0        2570676563.0         317077452.0        3194180850.0         618832124.0        2338701263.0        1119171942.0        2570676563.0         317077452.0        3194180850.0         618832124.0
 Wiener process for particle 5            1 F T F   8.1470075740497028E-01        1625744428.0         197803728.0        1475645280.0        1216327966.0        1670275381.0         937056795.0        1597262096.0        3906379055.0        3312112953.0        1016013135.0        4099474108.0         275305423.0        1597262096.0        3906379055.0        3312112953.0        1016013135.0        4099474108.0         275305423.0
 Wiener process for particle 6            1 F T F   1.9869920194485817E+00           8574507.0        1189755263.0        3474295062.0        1587416997.0        2900401736.0         646074534.0          97147054.0        3131372450.0         829345164.0        3691032523.0        3006063034.0        4259826321.0          97147054.0        3131372450.0         829345164.0        3691032523.0        3006063034.0        4259826321.0
 Wiener process for particle 7            1 F T F   1.3602471453409440E-01        3325641344.0        2113885793.0        1100211968.0        1531230558.0        4154257576.0        3250533572.0         796079799.0        2105258207.0         955365076.0        2923159030.0        4116632677.0        3067683584.0         796079799.0        2105258207.0         955365076.0        2923159030.0        4116632677.0        3067683584.0
 Wiener process for particle 8            1 F T F  -8.8018623410854191E-01        1390361974.0        1564093175.0        3317409947.0        3182017380.0         901099911.0        2715751914.0        3281794178.0        2616230133.0        1457051261.0        2762791137.0        2480527362.0        2282316169.0        3281794178.0        2616230133.0        1457051261.0        2762791137.0        2480527362.0        2282316169.0
 Wiener process for particle 9            1 F T F  -9.2606891250080103E-01        4190133721.0         144538760.0         545771611.0        4227361625.0        3963344829.0         919569653.0        3777646647.0        1837464056.0        4204654757.0         664239048.0        4190510072.0        2959195122.0        3777646647.0        1837464056.0        4204654757.0         664239048.0        4190510072.0        2959195122.0
 Wiener process for particle 10           1 F T F  -2.5096346000411888E-02        4047659089.0         500387246.0        2879488800.0         232530593.0        2696384438.0        3853518607.0        4215590817.0        3862461878.0        1087200967.0        1544910132.0         936383720.0        1611370123.0        4215590817.0        3862461878.0        1087200967.0        1544910132.0         936383720.0        1611370123.0
 Wiener process for particle 11           1 F T F   4.0908384743345483E-01        1714753888.0        2989193691.0        3419903162.0        3778495582.0        4070878372.0         703297812.0        1683636369.0         362165168.0         814316280.0         869382050.0         980203903.0        2062101717.0        1683636369.0         362165168.0         814316280.0         869382050.0         980203903.0        2062101717.0
 Wiener process for particle 12           1 F T F   1.6872077133759706E+00        2456589292.0        1504972540.0        3710025770.0         675423380.0        2951201757.0        3104459369.0         272317999.0         166758548.0         310112982.0         201045826.0        1680231254.0         118290799.0         272317999.0         166758548.0         310112982.0         201045826.0        1680231254.0         118290799.0
 Wiener process for particle 13           1 F T F   4.7560332909022857E-01        1714246623.0        1533442517.0          39099525.0        2325749102.0        2296647769.0          93003795.0        2245755202.0        1652682525.0        2865544364.0         721509566.0         209733568.0         592362218.0        2245755202.0        1652682525.0        2865544364.0         721509566.0         209733568.0         592362218.0
 Wiener process for particle 14           1 F T F   1.0700021702181817E+00        1749147606.0        1562504887.0        3151276032.0        2704942439.0        2273318795.0        3019190350.0        3003961408.0        3529909391.0          14538032.0        3603919910.0         566682685.0        1235016484.0        3003961408.0        3529909391.0          14538032.0        3603919910.0         566682685.0        1235016484.0
 Wiener process for particle 15           1 F T F   3.2366804124314513E-01        3377008274.0        2117946259.0        2063834172.0        3042696199.0        2831706999.0        1810903289.0         596094074.0        2279636413.0        3050913596.0        1739649456.0        2368706608.0        3058697049.0         596094074.0        2279636413.0        3050913596.0        1739649456.0        2368706608.0        3058697049.0
 Wiener process for particle 16           1 F T F   7.2257160386975161E-02         976998146.0        1730499557.0        2137665763.0         572543455.0        3460033445.0        1923985819.0        1437096527.0        2547142266.0        2541498983.0        2640839690.0        2160978219.0        2618657830.0        1437096527.0        2547142266.0        2541498983.0        2640839690.0        2160978219.0        2618657830.0
 Wiener process for particle 17           1 F T F  -7.1559379366332798E-01        1954121528.0        2530852990.0         142732253.0        1696393457.0        2081475297.0         702549215.0        3224044943.0        1227141655.0        2220611050.0        1504589054.0        2829780440.0         108189859.0        3224044943.0        1227141655.0        2220611050.0        1504589054.0        2829780440.0         108189859.0
 Wiener process for particle 18           1 F T F   1.6618319467029150E+00         738304600.0        3152884656.0        1781321313.0        3411957184.0         556979115.0        1221824397.0         927434978.0        1593504038.0        2143021818.0        1749489845.0        1330187821.0        2371554242.0         927434978.0        1593504038.0        2143021818.0        1749489845.0        1330187821.0        2371554242.0
 Wiener process for particle 19           1 F T F   1.5695484229086190E-01        2662310566.0         810040099.0        2320185511.0        2206876765.0        2366097282.0        1745845949.0        3446225690.0         835741554.0        2195834023.0        1297741021.0        3357053382.0         383824268.0        3446225690.0         835741554.0        2195834023.0        1297741021.0        3357053382.0         383824268.0
 Wiener process for particle 20           1 F T F   5.9699384107650377E-01         796599362.0        2707451134.0        2734473202.0        2095459726.0        3900711385.0        3357092786.0        3984477137.0        1267973573.0        3770063761.0         216527865.0        1568537936.0        1200352663.0        3984477137.0        1267973573.0        3770063761.0         216527865.0        1568537936.0        1200352663.0
 Wiener process for particle 21           1 F T F  -1.0225932093315153E-01        1787467939.0        2409014500.0        1665382849.0         818628005.0         389355497.0        2188399694.0        2503334853.0        3179736892.0        2080184241.0        2881517721.0        3611607237.0        2639045213.0        2503334853.0        3179736892.0        2080184241.0        2881517721.0        3611607237.0        2639045213.0
 Wiener process for particle 22           1 F T F   1.1673887409790020E+00        4279059427.0        3828952106.0        4153657229.0        2662768757.0         602444940.0        4206273582.0        2784301963.0        3004110709.0        4065265451.0        2351994899.0        1824839263.0        1473060447.0        2784301963.0        3004110709.0        4065265451.0        2351994899.0        1824839263.0        1473060447.0
 Wiener process for particle 23           1 F T F   6.4683520587064314E-01        2100971832.0        1004052996.0        2710171098.0         328834191.0        2544015034.0        2772133230.0        3645411182.0        1391027122.0        3995023402.0         536114258.0        1376034799.0        2391282907.0        3645411182.0        1391027122.0        3995023402.0         536114258.0        1376034799.0        2391282907.0
 Wiener process for particle 24           1 F T F   1.6706645881730482E+00        1844507817.0        2465005751.0        2670115925.0         710800440.0        4228660255.0        1150993515.0        4205039797.0        2998067142.0        2737381050.0        2060484144.0          21123025.0         900610517.0        4205039797.0        2998067142.0        2737381050.0        2060484144.0          21123025.0         900610517.0
 Wiener process for particle 25           1 F T F  -3.5564927611011826E-01        3767147496.0        4118946294.0        2253716373.0        3553138778.0        3085390799.0         254602668.0        1708138263.0        1103344630.0        3131738563.0         354874525.0        1462105562.0        2799820805.0        1708138263.0        1103344630.0        3131738563.0         354874525.0        1462105562.0        2799820805.0
 Wiener process for particle 26           1 F T F   1.9696795769587305E+00        2141464509.0        4185632448.0        3731827879.0        3698234884.0        1644956053.0        2726579215.0        1762624356.0        3338520614.0        1869672149.0        2420033342.0        3823777008.0        4112813433.0        1762624356.0        3338520614.0        1869672149.0        2420033342.0        3823777008.0        4112813433.0
 Wiener process for particle 27           1 F T F   4.7450884940167565E-01          64705294.0        2437205649.0         480327084.0         955110488.0        3468991318.0        2471642297.0        1406960847.0        2689758640.0        2086764669.0        1479781266.0        4277003072.0        4173905453.0        1406960847.0        2689758640.0        2086764669.0        1479781266.0        4277003072.0        4173905453.0
 Wiener process for particle 28           1 F T F  -1.4822252847349080E+00        3843191693.0        1212878685.0        1284669716.0         628266535.0         210331636.0        4225664648.0        3217706054.0        3907922111.0        3316415646.0         934936431.0        1155310743.0        1383590847.0        3217706054.0        3907922111.0        3316415646.0         934936431.0        1155310743.0        1383590847.0