 # Version information for this restart file 
 # current date 2025-04-25 13:52:39.863
 # current working dir /home/louimatt/projects/comp_chem_project/ucl3_md_new
 # Program compiled at                              Mon Feb  5 13:19:46 MST 2024
 # Program compiled on                                             sawtoothbuild
 # Program compiled for                                                    local
 # Source code revision number                                       git:b4a17a5
 &GLOBAL
   PRINT_LEVEL LOW
   PROJECT_NAME "UCl3_md"
   RUN_TYPE MD
 &END GLOBAL
 &MOTION
   &MD
     ENSEMBLE NVT
     STEPS 10000
     TIMESTEP  1.9999999999999998E+000
     STEP_START_VAL 2000
     TIME_START_VAL  3.9999999999999291E+003
     ECONS_START_VAL -4.1379789718276179E+003
     TEMPERATURE  1.2500000000000002E+003
     &THERMOSTAT
       TYPE AD_LANGEVIN
       REGION MASSIVE
       &AD_LANGEVIN
         TIMECON_NH  9.9999999999999986E+001
         TIMECON_LANGEVIN  2.4999999999999996E+000
         &CHI
             7.7622649733006645E-003
            -5.8120861176079132E-003
             7.8363607758562661E-004
             3.9541676532853310E-003
             9.9525016766656583E-003
             1.0407384084844680E-002
             8.4001864761159249E-003
             4.1893932154128269E-003
            -2.5001074354333255E-002
             1.6863708985145266E-003
            -2.3905980335510037E-002
             7.9808091216659171E-003
            -1.2914703766627801E-002
            -3.6499376194230613E-003
            -1.2121810215780531E-002
             4.8439467114776563E-003
            -7.3095808371609417E-003
             4.5847765198790500E-003
             5.9525126445292699E-004
             1.6027045898047307E-002
             5.5272746288088275E-003
             1.9980275125117034E-002
             1.0515040054301381E-002
             7.3814811430162842E-003
            -7.9090378972669732E-003
            -4.1937789264556513E-003
            -1.1901065116162049E-002
            -8.9303255163993497E-003
             9.7586954009491050E-003
             4.6576977356651578E-003
            -1.8921892775919411E-002
            -8.5740117148017433E-003
            -7.3650998859178590E-003
             1.4356774237488176E-002
            -9.4083896613629068E-003
            -6.2130701135223419E-003
            -5.0654996900624657E-003
             2.8724821101645913E-005
            -8.6902057128216866E-003
            -1.7269241838980707E-003
            -5.7388539688881680E-003
             3.0608414630477173E-003
             5.2110565974942142E-003
             8.6421166477070981E-003
            -1.1268366118327117E-002
            -1.2927103134877134E-002
             1.1546631477877725E-002
            -9.8468363273250905E-004
            -2.6008477634137671E-004
            -6.5621339022030522E-003
            -4.3915811907840547E-003
            -9.8350679800080620E-003
             8.7011233407322530E-003
             3.3284344321046432E-003
            -8.0282866208883242E-003
             1.1579932286038581E-002
             2.1909204634237664E-002
             1.1038608209670373E-002
            -1.7981489527747196E-003
             9.5531722964054423E-003
             2.9859768493887082E-003
             1.8324994979470269E-002
             3.6056120624183910E-003
             5.9731191342050263E-003
             1.0442645619922004E-003
             6.6785668861555920E-003
            -2.2570515893840591E-002
             5.7359145034818751E-003
             4.9940777825434506E-003
            -1.3034836145611507E-002
            -8.7395809501892262E-003
            -3.8524796357021626E-004
             1.2605841005169448E-002
            -1.3677308314112907E-002
             3.6613799671241110E-003
            -1.4171738711159558E-002
             9.3602403583963045E-003
            -1.7187249458825347E-002
             1.4594967304191833E-003
             1.2088689944847461E-004
             3.7578450356499011E-003
             1.3639667030477216E-002
             6.2943140181940891E-003
            -1.2459452129791907E-002
             1.1069371926030662E-002
            -7.0635774365115076E-004
            -1.0696009354495767E-002
            -1.3054860205537068E-002
             1.8402396900242140E-003
             2.5471145264904780E-003
             2.6102498951523046E-002
            -9.0914466671734515E-004
            -1.3454514384457265E-003
             1.3375809126968471E-002
             1.9626221703637245E-002
             8.7961755504006658E-003
            -4.0011103640951885E-003
            -3.1445199125839604E-003
             1.1116728155959481E-002
             1.1622738308988485E-002
             8.8373724019026184E-003
            -8.9925167940249160E-003
             9.1860674554450541E-003
             1.0717540466379761E-002
             1.2457371615175605E-002
            -2.9424443863449205E-004
            -1.2291273274196133E-002
             3.6165322648416703E-003
             3.1177960175067234E-003
            -2.4229276089238875E-003
            -1.0171383964628498E-002
            -2.5612646505805991E-003
            -1.1738020792837891E-002
             5.2902624951365841E-003
             1.6402145108159707E-002
             1.2083922727563019E-003
             4.7972704108165060E-003
            -7.2851292210701756E-003
            -1.1428497052677605E-002
            -2.6545277651612493E-003
            -5.2427159554804649E-003
             7.1535211742184968E-003
             2.6602354474294957E-003
             7.4882613095743232E-003
             1.2285285450767305E-003
             1.1724294046026604E-002
             1.1961601046312517E-002
             1.2735268148035203E-002
             3.7275397605047974E-003
            -1.5374659465150859E-002
             7.3395380818106438E-003
            -5.0701731519250792E-003
            -5.0737440431592859E-003
            -6.7110060787353622E-003
            -1.0109193493648239E-002
             9.6360127563845284E-004
            -2.6323771239591975E-003
             1.7211335891686087E-002
             1.3666326643592568E-002
            -1.0163952056870157E-002
             1.0624515649920022E-002
             1.5832760961702896E-003
             5.2879292877354251E-003
            -4.1848290101779654E-003
             1.2718149531884281E-002
            -1.3089071740210621E-003
            -9.5355197260384213E-003
            -2.6288437051826831E-003
             1.0885360760346590E-003
             4.6697584944694606E-003
             9.9650691447851012E-005
             1.5305242447222749E-002
             1.2601747783916355E-002
            -3.1138552715499125E-002
            -6.7061845525037932E-003
            -7.0731244352315453E-003
            -1.1428603888843317E-003
            -8.6884099132246324E-003
             8.2968709890484816E-003
             8.3683817578774483E-004
             2.5484087519838456E-002
             5.2815333697421238E-003
            -6.9620685491494558E-004
            -3.6433927735624065E-003
            -8.4287192148713378E-005
            -5.0533867355410638E-003
             3.8350041224229032E-004
            -2.9179412155372567E-002
            -3.5915921557271662E-003
            -6.8347775468967876E-003
            -1.4831384128940588E-004
             9.6660392627792701E-003
            -1.1136447961107958E-002
             9.4184159769813112E-003
            -1.2115283718146170E-002
             1.8532617489119878E-002
             6.0944369563096477E-003
            -2.7642905193480116E-003
            -7.5513547559176424E-003
            -2.7605478548012086E-002
            -1.2170129029489510E-002
            -3.7092187577778550E-003
            -8.7708111947244673E-003
             1.0136304883938281E-002
            -3.1809218956661764E-003
             1.0591921572632550E-002
             4.0196320772620687E-003
            -8.7103191584212325E-004
            -6.4683592526527832E-003
            -1.6349599173367195E-003
             2.2766399842187399E-003
             1.1780852958556111E-002
         &END CHI
         &MASS
             2.7969677064634417E+006
             2.7969677064634417E+006
             2.7969677064634417E+006
             2.7969677064634417E+006
             2.7969677064634417E+006
             2.7969677064634417E+006
             2.7969677064634417E+006
             2.7969677064634417E+006
             2.7969677064634417E+006
             2.7969677064634417E+006
             2.7969677064634417E+006
             2.7969677064634417E+006
             2.7969677064634417E+006
             2.7969677064634417E+006
             2.7969677064634417E+006
             2.7969677064634417E+006
             2.7969677064634417E+006
             2.7969677064634417E+006
             2.7969677064634417E+006
             2.7969677064634417E+006
             2.7969677064634417E+006
             2.7969677064634417E+006
             2.7969677064634417E+006
             2.7969677064634417E+006
             2.7969677064634417E+006
             2.7969677064634417E+006
             2.7969677064634417E+006
             2.7969677064634417E+006
             2.7969677064634417E+006
             2.7969677064634417E+006
             2.7969677064634417E+006
             2.7969677064634417E+006
             2.7969677064634417E+006
             2.7969677064634417E+006
             2.7969677064634417E+006
             2.7969677064634417E+006
             2.7969677064634417E+006
             2.7969677064634417E+006
             2.7969677064634417E+006
             2.7969677064634417E+006
             2.7969677064634417E+006
             2.7969677064634417E+006
             2.7969677064634417E+006
             2.7969677064634417E+006
             2.7969677064634417E+006
             2.7969677064634417E+006
             2.7969677064634417E+006
             2.7969677064634417E+006
             2.7969677064634417E+006
             2.7969677064634417E+006
             2.7969677064634417E+006
             2.7969677064634417E+006
             2.7969677064634417E+006
             2.7969677064634417E+006
             2.7969677064634417E+006
             2.7969677064634417E+006
             2.7969677064634417E+006
             2.7969677064634417E+006
             2.7969677064634417E+006
             2.7969677064634417E+006
             2.7969677064634417E+006
             2.7969677064634417E+006
             2.7969677064634417E+006
             2.7969677064634417E+006
             2.7969677064634417E+006
             2.7969677064634417E+006
             2.7969677064634417E+006
             2.7969677064634417E+006
             2.7969677064634417E+006
             2.7969677064634417E+006
             2.7969677064634417E+006
             2.7969677064634417E+006
             2.7969677064634417E+006
             2.7969677064634417E+006
             2.7969677064634417E+006
             2.7969677064634417E+006
             2.7969677064634417E+006
             2.7969677064634417E+006
             2.7969677064634417E+006
             2.7969677064634417E+006
             2.7969677064634417E+006
             2.7969677064634417E+006
             2.7969677064634417E+006
             2.7969677064634417E+006
             2.7969677064634417E+006
             2.7969677064634417E+006
             2.7969677064634417E+006
             2.7969677064634417E+006
             2.7969677064634417E+006
             2.7969677064634417E+006
             2.7969677064634417E+006
             2.7969677064634417E+006
             2.7969677064634417E+006
             2.7969677064634417E+006
             2.7969677064634417E+006
             2.7969677064634417E+006
             2.7969677064634417E+006
             2.7969677064634417E+006
             2.7969677064634417E+006
             2.7969677064634417E+006
             2.7969677064634417E+006
             2.7969677064634417E+006
             2.7969677064634417E+006
             2.7969677064634417E+006
             2.7969677064634417E+006
             2.7969677064634417E+006
             2.7969677064634417E+006
             2.7969677064634417E+006
             2.7969677064634417E+006
             2.7969677064634417E+006
             2.7969677064634417E+006
             2.7969677064634417E+006
             2.7969677064634417E+006
             2.7969677064634417E+006
             2.7969677064634417E+006
             2.7969677064634417E+006
             2.7969677064634417E+006
             2.7969677064634417E+006
             2.7969677064634417E+006
             2.7969677064634417E+006
             2.7969677064634417E+006
             2.7969677064634417E+006
             2.7969677064634417E+006
             2.7969677064634417E+006
             2.7969677064634417E+006
             2.7969677064634417E+006
             2.7969677064634417E+006
             2.7969677064634417E+006
             2.7969677064634417E+006
             2.7969677064634417E+006
             2.7969677064634417E+006
             2.7969677064634417E+006
             2.7969677064634417E+006
             2.7969677064634417E+006
             2.7969677064634417E+006
             2.7969677064634417E+006
             2.7969677064634417E+006
             2.7969677064634417E+006
             2.7969677064634417E+006
             2.7969677064634417E+006
             2.7969677064634417E+006
             2.7969677064634417E+006
             2.7969677064634417E+006
             2.7969677064634417E+006
             2.7969677064634417E+006
             2.7969677064634417E+006
             2.7969677064634417E+006
             2.7969677064634417E+006
             2.7969677064634417E+006
             2.7969677064634417E+006
             2.7969677064634417E+006
             2.7969677064634417E+006
             2.7969677064634417E+006
             2.7969677064634417E+006
             2.7969677064634417E+006
             2.7969677064634417E+006
             2.7969677064634417E+006
             2.7969677064634417E+006
             2.7969677064634417E+006
             2.7969677064634417E+006
             2.7969677064634417E+006
             2.7969677064634417E+006
             2.7969677064634417E+006
             2.7969677064634417E+006
             2.7969677064634417E+006
             2.7969677064634417E+006
             2.7969677064634417E+006
             2.7969677064634417E+006
             2.7969677064634417E+006
             2.7969677064634417E+006
             2.7969677064634417E+006
             2.7969677064634417E+006
             2.7969677064634417E+006
             2.7969677064634417E+006
             2.7969677064634417E+006
             2.7969677064634417E+006
             2.7969677064634417E+006
             2.7969677064634417E+006
             2.7969677064634417E+006
             2.7969677064634417E+006
             2.7969677064634417E+006
             2.7969677064634417E+006
             2.7969677064634417E+006
             2.7969677064634417E+006
             2.7969677064634417E+006
             2.7969677064634417E+006
             2.7969677064634417E+006
             2.7969677064634417E+006
             2.7969677064634417E+006
             2.7969677064634417E+006
             2.7969677064634417E+006
             2.7969677064634417E+006
         &END MASS
       &END AD_LANGEVIN
     &END THERMOSTAT
     &AVERAGES T
       &RESTART_AVERAGES
         ITIMES_START 1
         AVECPU  8.1908059310002372E+001
         AVEHUGONIOT  0.0000000000000000E+000
         AVETEMP_BARO  0.0000000000000000E+000
         AVEPOT -4.1428535019797355E+003
         AVEKIN  3.8031901286379155E-001
         AVETEMP  1.2509906497693703E+003
         AVEKIN_QM  0.0000000000000000E+000
         AVETEMP_QM  0.0000000000000000E+000
         AVEVOL  1.2804379601851517E+004
         AVECELL_A  2.3394809525124273E+001
         AVECELL_B  2.3394809525124273E+001
         AVECELL_C  2.3394809525124273E+001
         AVEALPHA  9.0000000000000000E+001
         AVEBETA  9.0000000000000000E+001
         AVEGAMMA  9.0000000000000000E+001
         AVE_ECONS -2.2173856675665589E+004
         AVE_PRESS  0.0000000000000000E+000
         AVE_PXX  0.0000000000000000E+000
       &END RESTART_AVERAGES
     &END AVERAGES
   &END MD
   &PRINT
     &TRAJECTORY SILENT
       FILENAME ucl3_md.xyz
       FORMAT XMOL
       &EACH
         MD 10
       &END EACH
     &END TRAJECTORY
     &VELOCITIES ON
     &END VELOCITIES
   &END PRINT
 &END MOTION
 &FORCE_EVAL
   METHOD QS
   &DFT
     BASIS_SET_FILE_NAME BASIS_MOLOPT
     BASIS_SET_FILE_NAME BASIS_MOLOPT_AcPP1
     POTENTIAL_FILE_NAME CUSTOM_POTENTIALS
     PLUS_U_METHOD LOWDIN
     &SCF
       MAX_SCF 10000
       EPS_SCF  2.9999999999999999E-007
       SCF_GUESS RESTART
       &OT T
         MINIMIZER CG
         PRECONDITIONER FULL_SINGLE_INVERSE
         ENERGY_GAP  1.0000000000000001E-001
       &END OT
     &END SCF
     &QS
       EPS_DEFAULT  1.0000000000000000E-010
     &END QS
     &MGRID
       NGRIDS 4
       CUTOFF  4.5000000000000000E+002
       REL_CUTOFF  6.0000000000000000E+001
     &END MGRID
     &XC
       DENSITY_CUTOFF  1.0000000000000000E-010
       GRADIENT_CUTOFF  1.0000000000000000E-010
       TAU_CUTOFF  1.0000000000000000E-010
       &XC_FUNCTIONAL NO_SHORTCUT
         &PBE T
         &END PBE
       &END XC_FUNCTIONAL
     &END XC
     &REAL_TIME_PROPAGATION
       INITIAL_WFN SCF_WFN
     &END REAL_TIME_PROPAGATION
   &END DFT
   &SUBSYS
     &RNG_INIT
 Wiener process for particle 1            1 F T F   6.0557175822355891E-01        2160224517.0         819946537.0        3557604310.0        1537320784.0        1710668532.0        2497432584.0             12345.0             12345.0             12345.0             12345.0             12345.0             12345.0             12345.0             12345.0             12345.0             12345.0             12345.0             12345.0
 Wiener process for particle 2            1 F T F   1.2338340753655228E+00        1092290628.0         153346056.0          88939421.0         144715978.0         847915176.0          90163910.0        3692455944.0        1366884236.0        2968912127.0         335948734.0        4161675175.0         475798818.0        3692455944.0        1366884236.0        2968912127.0         335948734.0        4161675175.0         475798818.0
 Wiener process for particle 3            1 F T F   7.4591287227856670E-02        3503211751.0        3278461362.0         377431864.0          83963222.0         857319776.0         652911264.0        1015873554.0        1310354410.0        2249465273.0         994084013.0        2912484720.0        3876682925.0        1015873554.0        1310354410.0        2249465273.0         994084013.0        2912484720.0        3876682925.0
 Wiener process for particle 4            1 F T F  -6.4777230600518898E-01        1359196278.0        2613563986.0        2937162788.0        2350845512.0         772192482.0         527426191.0        2338701263.0        1119171942.0        2570676563.0         317077452.0        3194180850.0         618832124.0        2338701263.0        1119171942.0        2570676563.0         317077452.0        3194180850.0         618832124.0
 Wiener process for particle 5            1 F T F  -1.8111424640468834E+00        2694473049.0            444340.0        2589679232.0        2011534067.0        2918436426.0        2224038439.0        1597262096.0        3906379055.0        3312112953.0        1016013135.0        4099474108.0         275305423.0        1597262096.0        3906379055.0        3312112953.0        1016013135.0        4099474108.0         275305423.0
 Wiener process for particle 6            1 F T F   3.1677185272488007E-01        3918475532.0        2118100912.0        2280452615.0          55032521.0        3843628975.0        1635603837.0          97147054.0        3131372450.0         829345164.0        3691032523.0        3006063034.0        4259826321.0          97147054.0        3131372450.0         829345164.0        3691032523.0        3006063034.0        4259826321.0
 Wiener process for particle 7            1 F T F  -1.1906051921202481E+00        3676161583.0        3695714186.0        4173252029.0         840030322.0        2632517481.0         588759139.0         796079799.0        2105258207.0         955365076.0        2923159030.0        4116632677.0        3067683584.0         796079799.0        2105258207.0         955365076.0        2923159030.0        4116632677.0        3067683584.0
 Wiener process for particle 8            1 F T F  -1.2934472006094178E+00        4162857881.0        2688237061.0        3428988488.0        4009660999.0        1192394669.0         783071091.0        3281794178.0        2616230133.0        1457051261.0        2762791137.0        2480527362.0        2282316169.0        3281794178.0        2616230133.0        1457051261.0        2762791137.0        2480527362.0        2282316169.0
 Wiener process for particle 9            1 F T F   7.6933015254282644E-01         720440956.0         923682955.0         673887287.0        3880848130.0        1251946133.0        1354660081.0        3777646647.0        1837464056.0        4204654757.0         664239048.0        4190510072.0        2959195122.0        3777646647.0        1837464056.0        4204654757.0         664239048.0        4190510072.0        2959195122.0
 Wiener process for particle 10           1 F T F  -8.1941894440218321E-02        2391829618.0        2066705424.0         228433291.0        2734266474.0         288171705.0        3096720762.0        4215590817.0        3862461878.0        1087200967.0        1544910132.0         936383720.0        1611370123.0        4215590817.0        3862461878.0        1087200967.0        1544910132.0         936383720.0        1611370123.0
 Wiener process for particle 11           1 F T F   7.8912706991713311E-01        4028661261.0        3875940506.0        3608283034.0        3608335194.0        1110107650.0          37075595.0        1683636369.0         362165168.0         814316280.0         869382050.0         980203903.0        2062101717.0        1683636369.0         362165168.0         814316280.0         869382050.0         980203903.0        2062101717.0
 Wiener process for particle 12           1 F T F  -1.4844062691824728E-01        3750480822.0        3335709695.0        2139083892.0        1205233387.0        1550522933.0         884589712.0         272317999.0         166758548.0         310112982.0         201045826.0        1680231254.0         118290799.0         272317999.0         166758548.0         310112982.0         201045826.0        1680231254.0         118290799.0
 Wiener process for particle 13           1 F T F  -4.2372535535382033E-01         323031516.0        3907425970.0        3062004323.0         589632265.0        3606360076.0         764877083.0        2245755202.0        1652682525.0        2865544364.0         721509566.0         209733568.0         592362218.0        2245755202.0        1652682525.0        2865544364.0         721509566.0         209733568.0         592362218.0
 Wiener process for particle 14           1 F T F  -1.6938063481380714E+00        1270497056.0        1223768540.0        2172067418.0         628735813.0         105715906.0        2811069017.0        3003961408.0        3529909391.0          14538032.0        3603919910.0         566682685.0        1235016484.0        3003961408.0        3529909391.0          14538032.0        3603919910.0         566682685.0        1235016484.0
 Wiener process for particle 15           1 F T F   9.7813051275957186E-02        1810010643.0        2604292260.0        3845787788.0         274951327.0         190984687.0         662350633.0         596094074.0        2279636413.0        3050913596.0        1739649456.0        2368706608.0        3058697049.0         596094074.0        2279636413.0        3050913596.0        1739649456.0        2368706608.0        3058697049.0
 Wiener process for particle 16           1 F T F   1.3263632014888751E+00        1943535631.0         876862464.0         280104283.0        2003855575.0        2190367493.0        4250635070.0        1437096527.0        2547142266.0        2541498983.0        2640839690.0        2160978219.0        2618657830.0        1437096527.0        2547142266.0        2541498983.0        2640839690.0        2160978219.0        2618657830.0
 Wiener process for particle 17           1 F T F   6.2836381069945413E-01         287699876.0        3905537926.0         695389107.0        1033336942.0          55706178.0        4038400056.0        3224044943.0        1227141655.0        2220611050.0        1504589054.0        2829780440.0         108189859.0        3224044943.0        1227141655.0        2220611050.0        1504589054.0        2829780440.0         108189859.0
 Wiener process for particle 18           1 F T F  -2.3718002154205178E+00         825519243.0        2315206170.0         511854402.0        3205904619.0         691453634.0        2283424839.0         927434978.0        1593504038.0        2143021818.0        1749489845.0        1330187821.0        2371554242.0         927434978.0        1593504038.0        2143021818.0        1749489845.0        1330187821.0        2371554242.0
 Wiener process for particle 19           1 F T F  -4.7086043907733677E-01         989003926.0        2250345758.0        1568201063.0        3242378815.0        1914011771.0        3033744603.0        3446225690.0         835741554.0        2195834023.0        1297741021.0        3357053382.0         383824268.0        3446225690.0         835741554.0        2195834023.0        1297741021.0        3357053382.0         383824268.0
 Wiener process for particle 20           1 F T F  -5.0329950002246426E-01         581073482.0        1905706980.0        4079765668.0        1627816694.0        1101985401.0        3057914557.0        3984477137.0        1267973573.0        3770063761.0         216527865.0        1568537936.0        1200352663.0        3984477137.0        1267973573.0        3770063761.0         216527865.0        1568537936.0        1200352663.0
 Wiener process for particle 21           1 F T F   9.3069548591231077E-01        1796837886.0        3574022370.0        2756799390.0        2013982591.0         629338497.0        3603940574.0        2503334853.0        3179736892.0        2080184241.0        2881517721.0        3611607237.0        2639045213.0        2503334853.0        3179736892.0        2080184241.0        2881517721.0        3611607237.0        2639045213.0
 Wiener process for particle 22           1 F T F   1.1309318171459332E-01        1672427816.0         386458024.0        3497551381.0        1279984047.0        1932979108.0        2009957213.0        2784301963.0        3004110709.0        4065265451.0        2351994899.0        1824839263.0        1473060447.0        2784301963.0        3004110709.0        4065265451.0        2351994899.0        1824839263.0        1473060447.0
 Wiener process for particle 23           1 F T F  -9.0599602850239588E-02        3213636509.0         103034875.0        2393102674.0        2790593213.0        2584586158.0        3914840117.0        3645411182.0        1391027122.0        3995023402.0         536114258.0        1376034799.0        2391282907.0        3645411182.0        1391027122.0        3995023402.0         536114258.0        1376034799.0        2391282907.0
 Wiener process for particle 24           1 F T F   2.1760169075888919E-01         572470146.0         213280646.0        2080918285.0        3037033497.0        2038305484.0        3682259944.0        4205039797.0        2998067142.0        2737381050.0        2060484144.0          21123025.0         900610517.0        4205039797.0        2998067142.0        2737381050.0        2060484144.0          21123025.0         900610517.0
 Wiener process for particle 25           1 F T F   4.2591792170121984E-01        2156125156.0        2722714256.0         434613207.0         598144512.0        3596360914.0        1272627496.0        1708138263.0        1103344630.0        3131738563.0         354874525.0        1462105562.0        2799820805.0        1708138263.0        1103344630.0        3131738563.0         354874525.0        1462105562.0        2799820805.0
 Wiener process for particle 26           1 F T F  -1.1928458655281067E+00        1420015743.0        2221117418.0        1294355025.0        2544824398.0        1495913763.0        3049482472.0        1762624356.0        3338520614.0        1869672149.0        2420033342.0        3823777008.0        4112813433.0        1762624356.0        3338520614.0        1869672149.0        2420033342.0        3823777008.0        4112813433.0
 Wiener process for particle 27           1 F T F   8.3945211412190868E-01        2840490848.0        1391341157.0        3444159860.0        1338536718.0        2618688489.0         120864209.0        1406960847.0        2689758640.0        2086764669.0        1479781266.0        4277003072.0        4173905453.0        1406960847.0        2689758640.0        2086764669.0        1479781266.0        4277003072.0        4173905453.0
 Wiener process for particle 28           1 F T F   5.2201851957267476E-01        1171330241.0        2125288269.0         316113279.0        3179896917.0        2342837083.0        4042236195.0        3217706054.0        3907922111.0        3316415646.0         934936431.0        1155310743.0        1383590847.0        3217706054.0        3907922111.0        3316415646.0         934936431.0        1155310743.0        1383590847.0