 # Version information for this restart file 
 # current date 2025-04-28 03:11:29.055
 # current working dir /home/louimatt/projects/comp_chem_project/ucl3_md_new
 # Program compiled at                              Mon Feb  5 13:19:46 MST 2024
 # Program compiled on                                             sawtoothbuild
 # Program compiled for                                                    local
 # Source code revision number                                       git:b4a17a5
 &GLOBAL
   PRINT_LEVEL LOW
   PROJECT_NAME "UCl3_md"
   RUN_TYPE MD
 &END GLOBAL
 &MOTION
   &MD
     ENSEMBLE NVT
     STEPS 10000
     TIMESTEP  1.9999999999999998E+000
     STEP_START_VAL 4000
     TIME_START_VAL  7.9999999999994052E+003
     ECONS_START_VAL -4.1379789718276179E+003
     TEMPERATURE  1.2500000000000002E+003
     &THERMOSTAT
       TYPE AD_LANGEVIN
       REGION MASSIVE
       &AD_LANGEVIN
         TIMECON_NH  9.9999999999999986E+001
         TIMECON_LANGEVIN  2.4999999999999996E+000
         &CHI
            -1.0953751172051234E-002
            -1.6186492905220572E-002
            -9.4027635554057767E-003
            -7.1574006375275609E-004
             1.2167769703509614E-003
            -1.3780047903013677E-003
             3.7744876283875815E-003
            -3.3496713945669054E-003
            -5.9789945208129952E-004
            -6.2952782555450752E-003
             1.0214425260168050E-003
             7.3028129285311561E-003
             1.1110614201914235E-002
            -3.1063264495289359E-004
             2.4070499334136308E-003
            -2.6331608579522892E-004
            -6.9379004853845289E-004
            -3.9009240186346160E-003
            -7.0913657741171962E-003
             1.1629427066325693E-002
             3.0408375992044948E-003
             5.1008406219917824E-003
            -4.9291278028278953E-004
             6.4563277138171534E-003
            -1.4339356979241314E-002
             1.4109077236555172E-002
             5.9083013349224773E-004
            -8.4298830224804177E-003
             2.5915633389690041E-002
            -7.4447654370968308E-003
            -3.2112381994142209E-004
            -1.9028225951629306E-002
             2.0628150876259169E-003
            -1.2692712766932681E-003
             1.1083719186108670E-003
            -1.4895530684614125E-002
            -6.1355248946770753E-003
             8.1942274770798462E-003
            -8.3538495990323827E-003
            -8.0030021003035378E-004
            -2.4634398612537349E-002
             4.1168687064874508E-004
             5.6631807825793861E-003
             1.0814135837897631E-002
             2.2694267059773449E-003
             1.4514304740450752E-003
            -4.5536912782860985E-003
            -4.5047861306650016E-004
            -6.9766593061298971E-003
             5.5386865383765900E-003
            -5.9518581190991090E-003
             4.2144532554542541E-003
             4.5791606427617515E-003
             1.2835037495744009E-002
             2.1171877035209896E-002
             2.4443090741300814E-003
            -2.1429480192321059E-003
            -5.8549148568648093E-003
             2.0039834119259647E-002
             1.6319335746025683E-002
             1.1655884073557469E-002
            -4.5895258652860222E-003
             4.9869685570780612E-003
             4.7168081325476077E-003
            -1.2143090156719287E-002
             1.8534012986962504E-002
            -1.8338910829251428E-002
            -8.1618011865058713E-003
            -7.8239377639275492E-003
            -7.5279324311747949E-003
             3.2217727208627971E-004
            -1.1985660528350171E-002
             1.0773964920262653E-002
             1.1684500355225695E-002
             7.5736685804411010E-003
            -7.0994595126792149E-003
            -8.7010774373942924E-003
            -2.2373295812984608E-002
             1.8313922781407861E-003
            -1.6681168453368131E-002
            -7.7397104627757269E-003
             1.5716422343513239E-002
             5.6705335314190496E-003
             3.5399729018513377E-003
             3.6681276415104079E-003
             4.5149232841657444E-003
             7.3966896686433817E-003
             3.3153872171412762E-003
            -8.1511242712005184E-005
             1.3482258609845704E-002
             6.2334266091945536E-003
             1.0555291266182125E-002
            -2.9750532500139241E-003
             1.0695510733204145E-002
            -3.6043010310613179E-003
             1.5802486210654051E-002
            -1.1478351760107895E-002
             3.6986275243970817E-003
             1.1788538921610530E-003
             4.1360758741085621E-002
             9.2957986244289719E-004
             7.4332379754825061E-003
             7.6257927077529354E-003
             5.7004640267861702E-003
            -4.3766667643066096E-004
            -9.6913627274861410E-003
             3.5663458869616992E-003
             6.2888476941296524E-003
             4.2216781521716377E-003
            -3.5373749314428415E-003
             1.5723438632890798E-002
             1.1755315459225408E-002
             1.3308208034659215E-002
             2.8512373962665052E-003
             6.8487889868110909E-003
             4.8384636121259509E-003
            -1.4197602759067297E-002
            -8.1063204062575434E-003
             5.6356398457187563E-004
             5.0544066927397761E-004
            -4.4205564335793712E-003
            -2.1056292229247701E-003
            -7.9461625153520628E-003
            -4.5814920642483015E-003
            -1.0732621641602203E-002
             5.4781865026007166E-003
             1.7105614209072455E-002
             1.5045740080199686E-002
             2.4671616708299211E-002
            -1.4430520935882136E-002
            -1.3084766177458036E-003
            -2.6542846866514009E-003
            -1.9940370086553614E-002
            -6.4745089102651778E-003
            -3.5909990543830393E-002
            -6.1927878701706230E-003
            -8.2524039679243207E-003
             6.8677632259188165E-004
             1.0010572134908726E-003
             6.6714944028705616E-003
             1.9358331101296769E-002
            -3.8398102489580234E-003
            -1.1340964317341076E-002
            -1.9788911223802323E-002
            -6.2381150820598507E-005
            -2.5950512924677481E-003
            -1.6356213864309062E-003
            -1.4307083642009508E-003
             1.6443590020953835E-003
            -2.0254826913771290E-003
             1.4236431468684738E-003
             8.8262618869625730E-003
             1.4161324184013030E-002
             9.3800555331019619E-003
            -8.2197994664823873E-003
            -8.2275408353606749E-003
             2.4813827709554054E-004
            -1.6714571213897800E-002
             6.9891397154241315E-003
             2.7417643639364490E-003
             4.5130582842136330E-003
            -3.1200572093735002E-003
            -5.7041481974771163E-003
             3.8421695665618811E-003
            -7.1332328432881925E-003
             4.3692231157577283E-003
            -1.8625267496878977E-003
            -3.9146877750079537E-003
            -8.5326895651963441E-003
            -4.5562235461813500E-003
             7.5418587907416807E-003
             1.4399272719395420E-003
            -1.7565486274502627E-002
            -7.7080899078371557E-003
            -1.5406423912113913E-002
             1.8913061559764629E-002
            -3.9514835017545168E-003
            -5.2629194393736542E-003
            -4.0595095602310319E-003
            -2.1724706786825199E-002
             1.0401178117548969E-002
            -7.4739325060868217E-003
             1.0375618583821623E-002
             4.1313914601774282E-003
            -1.9701395975352570E-003
             2.1967006146808030E-003
             8.4482600187039021E-003
            -1.8942901231053733E-002
            -6.9041354400479491E-003
            -1.2000000530677502E-002
            -5.4320620802984073E-003
             1.8909947889032988E-003
         &END CHI
         &MASS
             2.7969677064634417E+006
             2.7969677064634417E+006
             2.7969677064634417E+006
             2.7969677064634417E+006
             2.7969677064634417E+006
             2.7969677064634417E+006
             2.7969677064634417E+006
             2.7969677064634417E+006
             2.7969677064634417E+006
             2.7969677064634417E+006
             2.7969677064634417E+006
             2.7969677064634417E+006
             2.7969677064634417E+006
             2.7969677064634417E+006
             2.7969677064634417E+006
             2.7969677064634417E+006
             2.7969677064634417E+006
             2.7969677064634417E+006
             2.7969677064634417E+006
             2.7969677064634417E+006
             2.7969677064634417E+006
             2.7969677064634417E+006
             2.7969677064634417E+006
             2.7969677064634417E+006
             2.7969677064634417E+006
             2.7969677064634417E+006
             2.7969677064634417E+006
             2.7969677064634417E+006
             2.7969677064634417E+006
             2.7969677064634417E+006
             2.7969677064634417E+006
             2.7969677064634417E+006
             2.7969677064634417E+006
             2.7969677064634417E+006
             2.7969677064634417E+006
             2.7969677064634417E+006
             2.7969677064634417E+006
             2.7969677064634417E+006
             2.7969677064634417E+006
             2.7969677064634417E+006
             2.7969677064634417E+006
             2.7969677064634417E+006
             2.7969677064634417E+006
             2.7969677064634417E+006
             2.7969677064634417E+006
             2.7969677064634417E+006
             2.7969677064634417E+006
             2.7969677064634417E+006
             2.7969677064634417E+006
             2.7969677064634417E+006
             2.7969677064634417E+006
             2.7969677064634417E+006
             2.7969677064634417E+006
             2.7969677064634417E+006
             2.7969677064634417E+006
             2.7969677064634417E+006
             2.7969677064634417E+006
             2.7969677064634417E+006
             2.7969677064634417E+006
             2.7969677064634417E+006
             2.7969677064634417E+006
             2.7969677064634417E+006
             2.7969677064634417E+006
             2.7969677064634417E+006
             2.7969677064634417E+006
             2.7969677064634417E+006
             2.7969677064634417E+006
             2.7969677064634417E+006
             2.7969677064634417E+006
             2.7969677064634417E+006
             2.7969677064634417E+006
             2.7969677064634417E+006
             2.7969677064634417E+006
             2.7969677064634417E+006
             2.7969677064634417E+006
             2.7969677064634417E+006
             2.7969677064634417E+006
             2.7969677064634417E+006
             2.7969677064634417E+006
             2.7969677064634417E+006
             2.7969677064634417E+006
             2.7969677064634417E+006
             2.7969677064634417E+006
             2.7969677064634417E+006
             2.7969677064634417E+006
             2.7969677064634417E+006
             2.7969677064634417E+006
             2.7969677064634417E+006
             2.7969677064634417E+006
             2.7969677064634417E+006
             2.7969677064634417E+006
             2.7969677064634417E+006
             2.7969677064634417E+006
             2.7969677064634417E+006
             2.7969677064634417E+006
             2.7969677064634417E+006
             2.7969677064634417E+006
             2.7969677064634417E+006
             2.7969677064634417E+006
             2.7969677064634417E+006
             2.7969677064634417E+006
             2.7969677064634417E+006
             2.7969677064634417E+006
             2.7969677064634417E+006
             2.7969677064634417E+006
             2.7969677064634417E+006
             2.7969677064634417E+006
             2.7969677064634417E+006
             2.7969677064634417E+006
             2.7969677064634417E+006
             2.7969677064634417E+006
             2.7969677064634417E+006
             2.7969677064634417E+006
             2.7969677064634417E+006
             2.7969677064634417E+006
             2.7969677064634417E+006
             2.7969677064634417E+006
             2.7969677064634417E+006
             2.7969677064634417E+006
             2.7969677064634417E+006
             2.7969677064634417E+006
             2.7969677064634417E+006
             2.7969677064634417E+006
             2.7969677064634417E+006
             2.7969677064634417E+006
             2.7969677064634417E+006
             2.7969677064634417E+006
             2.7969677064634417E+006
             2.7969677064634417E+006
             2.7969677064634417E+006
             2.7969677064634417E+006
             2.7969677064634417E+006
             2.7969677064634417E+006
             2.7969677064634417E+006
             2.7969677064634417E+006
             2.7969677064634417E+006
             2.7969677064634417E+006
             2.7969677064634417E+006
             2.7969677064634417E+006
             2.7969677064634417E+006
             2.7969677064634417E+006
             2.7969677064634417E+006
             2.7969677064634417E+006
             2.7969677064634417E+006
             2.7969677064634417E+006
             2.7969677064634417E+006
             2.7969677064634417E+006
             2.7969677064634417E+006
             2.7969677064634417E+006
             2.7969677064634417E+006
             2.7969677064634417E+006
             2.7969677064634417E+006
             2.7969677064634417E+006
             2.7969677064634417E+006
             2.7969677064634417E+006
             2.7969677064634417E+006
             2.7969677064634417E+006
             2.7969677064634417E+006
             2.7969677064634417E+006
             2.7969677064634417E+006
             2.7969677064634417E+006
             2.7969677064634417E+006
             2.7969677064634417E+006
             2.7969677064634417E+006
             2.7969677064634417E+006
             2.7969677064634417E+006
             2.7969677064634417E+006
             2.7969677064634417E+006
             2.7969677064634417E+006
             2.7969677064634417E+006
             2.7969677064634417E+006
             2.7969677064634417E+006
             2.7969677064634417E+006
             2.7969677064634417E+006
             2.7969677064634417E+006
             2.7969677064634417E+006
             2.7969677064634417E+006
             2.7969677064634417E+006
             2.7969677064634417E+006
             2.7969677064634417E+006
             2.7969677064634417E+006
             2.7969677064634417E+006
             2.7969677064634417E+006
             2.7969677064634417E+006
             2.7969677064634417E+006
             2.7969677064634417E+006
             2.7969677064634417E+006
             2.7969677064634417E+006
             2.7969677064634417E+006
             2.7969677064634417E+006
             2.7969677064634417E+006
             2.7969677064634417E+006
         &END MASS
       &END AD_LANGEVIN
     &END THERMOSTAT
     &AVERAGES T
       &RESTART_AVERAGES
         ITIMES_START 1
         AVECPU  7.3603581366803354E+001
         AVEHUGONIOT  0.0000000000000000E+000
         AVETEMP_BARO  0.0000000000000000E+000
         AVEPOT -4.1430752090771120E+003
         AVEKIN  3.7966245699183632E-001
         AVETEMP  1.2488310279017076E+003
         AVEKIN_QM  0.0000000000000000E+000
         AVETEMP_QM  0.0000000000000000E+000
         AVEVOL  1.2804379601851429E+004
         AVECELL_A  2.3394809525124455E+001
         AVECELL_B  2.3394809525124455E+001
         AVECELL_C  2.3394809525124455E+001
         AVEALPHA  9.0000000000000000E+001
         AVEBETA  9.0000000000000000E+001
         AVEGAMMA  9.0000000000000000E+001
         AVE_ECONS -2.3271237312145251E+004
         AVE_PRESS  0.0000000000000000E+000
         AVE_PXX  0.0000000000000000E+000
       &END RESTART_AVERAGES
     &END AVERAGES
   &END MD
   &PRINT
     &TRAJECTORY SILENT
       FILENAME ucl3_md.xyz
       FORMAT XMOL
       &EACH
         MD 10
       &END EACH
     &END TRAJECTORY
     &VELOCITIES ON
     &END VELOCITIES
   &END PRINT
 &END MOTION
 &FORCE_EVAL
   METHOD QS
   &DFT
     BASIS_SET_FILE_NAME BASIS_MOLOPT
     BASIS_SET_FILE_NAME BASIS_MOLOPT_AcPP1
     POTENTIAL_FILE_NAME CUSTOM_POTENTIALS
     PLUS_U_METHOD LOWDIN
     &SCF
       MAX_SCF 10000
       EPS_SCF  2.9999999999999999E-007
       SCF_GUESS RESTART
       &OT T
         MINIMIZER CG
         PRECONDITIONER FULL_SINGLE_INVERSE
         ENERGY_GAP  1.0000000000000001E-001
       &END OT
     &END SCF
     &QS
       EPS_DEFAULT  1.0000000000000000E-010
     &END QS
     &MGRID
       NGRIDS 4
       CUTOFF  4.5000000000000000E+002
       REL_CUTOFF  6.0000000000000000E+001
     &END MGRID
     &XC
       DENSITY_CUTOFF  1.0000000000000000E-010
       GRADIENT_CUTOFF  1.0000000000000000E-010
       TAU_CUTOFF  1.0000000000000000E-010
       &XC_FUNCTIONAL NO_SHORTCUT
         &PBE T
         &END PBE
       &END XC_FUNCTIONAL
     &END XC
     &REAL_TIME_PROPAGATION
       INITIAL_WFN SCF_WFN
     &END REAL_TIME_PROPAGATION
   &END DFT
   &SUBSYS
     &RNG_INIT
 Wiener process for particle 1            1 F T F  -5.4897408374466203E-02        1016369908.0        1304904130.0        1533682001.0        1187084177.0        3566289346.0          71223014.0             12345.0             12345.0             12345.0             12345.0             12345.0             12345.0             12345.0             12345.0             12345.0             12345.0             12345.0             12345.0
 Wiener process for particle 2            1 F T F   1.5770030705431609E-01        3237917793.0        3157097532.0         867300434.0        2980788177.0         837777546.0        4288688105.0        3692455944.0        1366884236.0        2968912127.0         335948734.0        4161675175.0         475798818.0        3692455944.0        1366884236.0        2968912127.0         335948734.0        4161675175.0         475798818.0
 Wiener process for particle 3            1 F T F   3.1166304527210476E-01         312482535.0        1021965134.0        3482676899.0        3781923377.0        2069476015.0        1859194665.0        1015873554.0        1310354410.0        2249465273.0         994084013.0        2912484720.0        3876682925.0        1015873554.0        1310354410.0        2249465273.0         994084013.0        2912484720.0        3876682925.0
 Wiener process for particle 4            1 F T F   2.3985840018963417E-01        2918907754.0        3621377801.0         480512398.0         227163308.0         834475724.0        1697713650.0        2338701263.0        1119171942.0        2570676563.0         317077452.0        3194180850.0         618832124.0        2338701263.0        1119171942.0        2570676563.0         317077452.0        3194180850.0         618832124.0
 Wiener process for particle 5            1 F T F  -1.2717941573349629E+00         901709405.0        2273028420.0         735597776.0         369180800.0        1367997751.0        2371220604.0        1597262096.0        3906379055.0        3312112953.0        1016013135.0        4099474108.0         275305423.0        1597262096.0        3906379055.0        3312112953.0        1016013135.0        4099474108.0         275305423.0
 Wiener process for particle 6            1 F T F  -1.3659416024697548E+00        3500870873.0        1408207502.0        4063678569.0        3637361694.0         475952243.0        3710199671.0          97147054.0        3131372450.0         829345164.0        3691032523.0        3006063034.0        4259826321.0          97147054.0        3131372450.0         829345164.0        3691032523.0        3006063034.0        4259826321.0
 Wiener process for particle 7            1 F T F   4.2753712400143501E-02        1294506330.0         575271038.0        3504611819.0        3063263500.0        2489382155.0        3494636282.0         796079799.0        2105258207.0         955365076.0        2923159030.0        4116632677.0        3067683584.0         796079799.0        2105258207.0         955365076.0        2923159030.0        4116632677.0        3067683584.0
 Wiener process for particle 8            1 F T F   4.9159056110963495E-01        1344533429.0        2922906755.0        3472801825.0        2875291345.0        3768486400.0        3611703535.0        3281794178.0        2616230133.0        1457051261.0        2762791137.0        2480527362.0        2282316169.0        3281794178.0        2616230133.0        1457051261.0        2762791137.0        2480527362.0        2282316169.0
 Wiener process for particle 9            1 F T F  -2.2176554384265168E-01        2719547138.0        3984778074.0         296634076.0        3669102917.0        3883925853.0        2954589360.0        3777646647.0        1837464056.0        4204654757.0         664239048.0        4190510072.0        2959195122.0        3777646647.0        1837464056.0        4204654757.0         664239048.0        4190510072.0        2959195122.0
 Wiener process for particle 10           1 F T F   1.3915381293445468E+00         545754850.0        3762786196.0         756006315.0          30774717.0        1181283717.0        1741268080.0        4215590817.0        3862461878.0        1087200967.0        1544910132.0         936383720.0        1611370123.0        4215590817.0        3862461878.0        1087200967.0        1544910132.0         936383720.0        1611370123.0
 Wiener process for particle 11           1 F T F  -1.8402593744362528E+00         107941092.0        2573667749.0          56615656.0        2180761235.0        1279214196.0        2369798334.0        1683636369.0         362165168.0         814316280.0         869382050.0         980203903.0        2062101717.0        1683636369.0         362165168.0         814316280.0         869382050.0         980203903.0        2062101717.0
 Wiener process for particle 12           1 F T F  -3.1701001838315312E-01        2945926483.0         123354665.0         147014551.0         625224982.0        2943278141.0        2822633718.0         272317999.0         166758548.0         310112982.0         201045826.0        1680231254.0         118290799.0         272317999.0         166758548.0         310112982.0         201045826.0        1680231254.0         118290799.0
 Wiener process for particle 13           1 F T F   1.3221699043487893E+00        1312482594.0          98388022.0        1313748830.0         809346227.0        1151471653.0        2383125489.0        2245755202.0        1652682525.0        2865544364.0         721509566.0         209733568.0         592362218.0        2245755202.0        1652682525.0        2865544364.0         721509566.0         209733568.0         592362218.0
 Wiener process for particle 14           1 F T F   1.0580387305060033E+00        2310995541.0         473383868.0         752405116.0        3997135683.0        1360079052.0        2538505003.0        3003961408.0        3529909391.0          14538032.0        3603919910.0         566682685.0        1235016484.0        3003961408.0        3529909391.0          14538032.0        3603919910.0         566682685.0        1235016484.0
 Wiener process for particle 15           1 F T F   3.2008156872476334E-01        1098080744.0        2495545274.0         777064741.0        3664754427.0        4006499659.0         810747407.0         596094074.0        2279636413.0        3050913596.0        1739649456.0        2368706608.0        3058697049.0         596094074.0        2279636413.0        3050913596.0        1739649456.0        2368706608.0        3058697049.0
 Wiener process for particle 16           1 F T F  -2.3649492043935860E-01        2450854787.0         260640967.0        3605094178.0        3232881943.0        4059720672.0        3523718060.0        1437096527.0        2547142266.0        2541498983.0        2640839690.0        2160978219.0        2618657830.0        1437096527.0        2547142266.0        2541498983.0        2640839690.0        2160978219.0        2618657830.0
 Wiener process for particle 17           1 F T F  -5.8452296211383925E-01         287812060.0        4103049057.0        2060735746.0        3296819654.0        2811349725.0        3440429413.0        3224044943.0        1227141655.0        2220611050.0        1504589054.0        2829780440.0         108189859.0        3224044943.0        1227141655.0        2220611050.0        1504589054.0        2829780440.0         108189859.0
 Wiener process for particle 18           1 F T F   5.7828648053008164E-02         205363205.0        2428545094.0         903729019.0         105207517.0        3953689243.0        2050970046.0         927434978.0        1593504038.0        2143021818.0        1749489845.0        1330187821.0        2371554242.0         927434978.0        1593504038.0        2143021818.0        1749489845.0        1330187821.0        2371554242.0
 Wiener process for particle 19           1 F T F  -1.3918166198804023E+00        2768944897.0        3508861355.0         191516021.0          42854147.0        2521124243.0        2848217408.0        3446225690.0         835741554.0        2195834023.0        1297741021.0        3357053382.0         383824268.0        3446225690.0         835741554.0        2195834023.0        1297741021.0        3357053382.0         383824268.0
 Wiener process for particle 20           1 F T F   1.6373004601528180E+00        3607148634.0        4124511902.0        2079345792.0         200513889.0        1509689281.0        2088269002.0        3984477137.0        1267973573.0        3770063761.0         216527865.0        1568537936.0        1200352663.0        3984477137.0        1267973573.0        3770063761.0         216527865.0        1568537936.0        1200352663.0
 Wiener process for particle 21           1 F T F  -4.5310995528329667E-01        2222800317.0         870339022.0         658665129.0         734023262.0        3378620802.0        2563417949.0        2503334853.0        3179736892.0        2080184241.0        2881517721.0        3611607237.0        2639045213.0        2503334853.0        3179736892.0        2080184241.0        2881517721.0        3611607237.0        2639045213.0
 Wiener process for particle 22           1 F T F  -4.2221230769221618E-01          60323956.0        1251071509.0        2441710447.0        3263611475.0        4084276176.0        1310116139.0        2784301963.0        3004110709.0        4065265451.0        2351994899.0        1824839263.0        1473060447.0        2784301963.0        3004110709.0        4065265451.0        2351994899.0        1824839263.0        1473060447.0
 Wiener process for particle 23           1 F T F   6.5707995217611959E-01        2164145655.0        2829357613.0        3240828936.0         463972130.0         557029156.0        2053781380.0        3645411182.0        1391027122.0        3995023402.0         536114258.0        1376034799.0        2391282907.0        3645411182.0        1391027122.0        3995023402.0         536114258.0        1376034799.0        2391282907.0
 Wiener process for particle 24           1 F T F  -5.9240983491377741E-01        2495710656.0        2079357083.0        1160113521.0        2293452345.0        1816457898.0        1458665522.0        4205039797.0        2998067142.0        2737381050.0        2060484144.0          21123025.0         900610517.0        4205039797.0        2998067142.0        2737381050.0        2060484144.0          21123025.0         900610517.0
 Wiener process for particle 25           1 F T F  -4.8559303145484661E-01        2062505489.0        1365273833.0        4254708954.0        3833447025.0        1198979880.0          91689329.0        1708138263.0        1103344630.0        3131738563.0         354874525.0        1462105562.0        2799820805.0        1708138263.0        1103344630.0        3131738563.0         354874525.0        1462105562.0        2799820805.0
 Wiener process for particle 26           1 F T F  -3.8529081751872685E-01        3185264231.0         358093573.0        2385003235.0         770330764.0        3557200455.0        3545932346.0        1762624356.0        3338520614.0        1869672149.0        2420033342.0        3823777008.0        4112813433.0        1762624356.0        3338520614.0        1869672149.0        2420033342.0        3823777008.0        4112813433.0
 Wiener process for particle 27           1 F T F  -1.0016133061180619E+00        1433286399.0         709008213.0        1113223749.0        3996172958.0        3698427726.0        3016822803.0        1406960847.0        2689758640.0        2086764669.0        1479781266.0        4277003072.0        4173905453.0        1406960847.0        2689758640.0        2086764669.0        1479781266.0        4277003072.0        4173905453.0
 Wiener process for particle 28           1 F T F   1.6997297228817596E-01        1916134723.0        4229681899.0        1937718574.0        2817280735.0        1801020863.0        2267404966.0        3217706054.0        3907922111.0        3316415646.0         934936431.0        1155310743.0        1383590847.0        3217706054.0        3907922111.0        3316415646.0         934936431.0        1155310743.0        1383590847.0