 # Version information for this restart file 
 # current date 2025-04-26 14:39:22.069
 # current working dir /home/louimatt/projects/comp_chem_project/ucl3_md_new
 # Program compiled at                              Mon Feb  5 13:19:46 MST 2024
 # Program compiled on                                             sawtoothbuild
 # Program compiled for                                                    local
 # Source code revision number                                       git:b4a17a5
 &GLOBAL
   PRINT_LEVEL LOW
   PROJECT_NAME "UCl3_md"
   RUN_TYPE MD
 &END GLOBAL
 &MOTION
   &MD
     ENSEMBLE NVT
     STEPS 10000
     TIMESTEP  1.9999999999999998E+000
     STEP_START_VAL 3500
     TIME_START_VAL  6.9999999999995362E+003
     ECONS_START_VAL -4.1379789718276179E+003
     TEMPERATURE  1.2500000000000002E+003
     &THERMOSTAT
       TYPE AD_LANGEVIN
       REGION MASSIVE
       &AD_LANGEVIN
         TIMECON_NH  9.9999999999999986E+001
         TIMECON_LANGEVIN  2.4999999999999996E+000
         &CHI
            -6.9881305557805860E-003
            -1.8214263166344554E-002
            -4.5816113015820876E-003
             1.6100243405536810E-003
            -1.6063722640235482E-002
            -6.1738026822266432E-003
             3.3989931631188781E-003
            -6.2387203563552575E-003
            -7.7783164610462875E-003
            -1.2150591497059741E-002
            -4.1646025778965274E-003
             2.5320856017141086E-003
             3.3757168835290142E-003
            -7.7068362454706877E-004
             5.6163470788531279E-003
             8.2887798637169673E-003
            -6.1959337026204720E-003
            -5.3032754286382886E-003
            -3.0908507524838921E-003
             1.3889061408199711E-002
             1.1091428869119759E-002
             8.3597302628720237E-003
            -3.2406879390829949E-003
             7.8787084597749697E-003
            -1.6592890809497596E-002
             5.4263148870060942E-003
            -6.2773632480636835E-003
            -1.7766350710523935E-002
             1.8466666848941108E-002
             8.6310568179047713E-004
             4.5580448975428099E-003
            -1.6829527650406607E-002
            -2.9966887098073487E-003
             4.5800394172277386E-003
            -1.0750850131086641E-002
            -1.3135231224894068E-002
             3.9407841580340131E-003
             3.2741289585692460E-003
            -6.4798868326908655E-004
            -3.7715104948438127E-003
            -1.1104345554999178E-002
            -2.7164136452317001E-003
             5.3291324208361796E-003
             4.4702877607984927E-003
             2.8928111747421213E-003
            -1.0552845925573592E-002
             9.7310184401045840E-004
             4.1273035755180044E-004
            -1.1461224634825969E-002
            -2.9276217346670655E-003
             3.0118548849409274E-003
             1.0029606766385209E-002
            -4.2932369005604177E-003
             2.4596482925768073E-002
             1.3494981890580441E-002
             3.6160654524699002E-004
             8.0761433470686855E-003
            -7.8871543526033115E-003
             2.2421628440734250E-002
             1.3341992792909957E-002
             9.7123327897782850E-003
            -3.2293298019919574E-004
             1.1780164846547697E-002
            -1.9245474853961183E-004
            -7.2269354996722917E-003
             2.0178941632873849E-002
            -1.6639913260771612E-002
            -7.8475916077239589E-003
             1.8835955107753802E-003
            -1.1876421735512848E-002
            -9.5608121478316620E-003
             3.2013445023629872E-003
             1.4937125544482417E-002
             1.4306775585280516E-002
             7.9843811000884033E-003
             3.5947075721255509E-003
             4.5821469961421241E-003
            -1.9268384260683797E-002
             9.6894669174023740E-004
            -1.1308663336610878E-002
            -1.7479337053827572E-002
             1.5846129185944507E-002
             6.1038454152752388E-003
            -3.9429801213569356E-004
            -9.7750067834843166E-003
             8.3312434854818107E-004
             4.5855927218290075E-003
            -3.4636200670090829E-003
            -7.3666372715028598E-003
             1.9849516472338776E-003
             1.8815220879686779E-002
             3.4670015089338971E-003
            -6.5709278961949475E-004
             4.2430671063531100E-003
             3.5176583282006766E-003
             1.1435615377001631E-002
            -1.6039351831474164E-002
            -3.6923520657267442E-003
             6.4891347675065745E-003
             2.0547660727629820E-002
            -1.3897250576224757E-003
             2.9461419212335180E-004
             1.2783108434832414E-002
             3.8747350593858108E-003
             6.7733091368722478E-003
            -5.7092996029453769E-003
            -6.3841127226668369E-003
            -5.4107669128348338E-003
             5.6504503011916710E-003
            -8.0442913595645243E-003
             1.3476224807524790E-002
             1.7026583554543676E-002
            -2.6205701306968063E-003
             9.2576585375506761E-003
             5.7957767218910659E-003
            -1.4375526243629606E-002
            -1.2308404242350967E-003
            -8.4807942070368805E-003
             5.0540665849738041E-003
             2.2977710716267155E-004
            -4.9299165731527339E-003
            -2.9056490376900817E-003
            -3.8986549215002238E-004
            -4.8362957785860142E-003
            -5.9257423104168124E-003
            -2.2079913954538618E-003
             1.9779753378523262E-002
             8.5327813387728862E-003
             1.8107811762357769E-002
            -1.9313852093368559E-002
             1.3802310201267674E-002
            -4.2243893214340654E-003
            -1.1697941173523822E-002
            -8.0823208409642657E-003
            -3.0861792051691664E-002
            -6.5407842484663664E-003
            -1.5466560413601315E-002
             8.4531862312288014E-003
             1.0267139419082513E-002
             1.2371268583275200E-002
             1.0296146911524777E-002
            -1.0467551697784575E-002
            -1.2685635212544004E-002
            -2.0196087598474629E-002
             5.4848103131061613E-003
            -2.2673430218454857E-003
            -4.0757654041847786E-004
            -9.2978613377148640E-003
            -1.9588436253261546E-003
             3.7627052899186957E-003
             8.3340575652614112E-003
             1.8581551407914596E-002
            -3.4998073223647601E-003
             1.0982886642937364E-002
            -8.6043377319499469E-003
            -7.4288668711811317E-003
            -2.2944040154654413E-003
            -6.1995450507016910E-003
             8.9035026230310267E-003
             6.5025346706330802E-003
             1.2641187166565373E-002
             3.4056012608762467E-004
            -5.4483244438377843E-003
            -1.4185201454713719E-003
            -7.5314843341049383E-004
             2.6233591935356775E-003
             1.1880606019906948E-002
            -1.0938944227893972E-002
            -3.0442403069599294E-003
            -2.3334645339686362E-003
             4.6574220882543279E-003
             1.2295182627807292E-002
            -1.2962660693317599E-002
            -9.3735209117162630E-003
            -1.4612081842169512E-002
             2.2060090095177582E-002
            -8.3052018357575169E-003
             5.1484193395424397E-003
            -9.3436740773850026E-003
            -1.9306162043778489E-002
            -8.8879428672076106E-003
            -8.8179178868372492E-003
             1.2334031592693116E-002
            -3.8177476013903553E-003
            -3.4690236771288321E-003
            -4.8758732252729264E-003
            -4.6109380268036645E-003
            -1.8071655322331737E-002
            -5.2341166556430473E-003
             1.0239274200228017E-003
            -2.4887211582635955E-003
             4.4816223402020846E-003
         &END CHI
         &MASS
             2.7969677064634417E+006
             2.7969677064634417E+006
             2.7969677064634417E+006
             2.7969677064634417E+006
             2.7969677064634417E+006
             2.7969677064634417E+006
             2.7969677064634417E+006
             2.7969677064634417E+006
             2.7969677064634417E+006
             2.7969677064634417E+006
             2.7969677064634417E+006
             2.7969677064634417E+006
             2.7969677064634417E+006
             2.7969677064634417E+006
             2.7969677064634417E+006
             2.7969677064634417E+006
             2.7969677064634417E+006
             2.7969677064634417E+006
             2.7969677064634417E+006
             2.7969677064634417E+006
             2.7969677064634417E+006
             2.7969677064634417E+006
             2.7969677064634417E+006
             2.7969677064634417E+006
             2.7969677064634417E+006
             2.7969677064634417E+006
             2.7969677064634417E+006
             2.7969677064634417E+006
             2.7969677064634417E+006
             2.7969677064634417E+006
             2.7969677064634417E+006
             2.7969677064634417E+006
             2.7969677064634417E+006
             2.7969677064634417E+006
             2.7969677064634417E+006
             2.7969677064634417E+006
             2.7969677064634417E+006
             2.7969677064634417E+006
             2.7969677064634417E+006
             2.7969677064634417E+006
             2.7969677064634417E+006
             2.7969677064634417E+006
             2.7969677064634417E+006
             2.7969677064634417E+006
             2.7969677064634417E+006
             2.7969677064634417E+006
             2.7969677064634417E+006
             2.7969677064634417E+006
             2.7969677064634417E+006
             2.7969677064634417E+006
             2.7969677064634417E+006
             2.7969677064634417E+006
             2.7969677064634417E+006
             2.7969677064634417E+006
             2.7969677064634417E+006
             2.7969677064634417E+006
             2.7969677064634417E+006
             2.7969677064634417E+006
             2.7969677064634417E+006
             2.7969677064634417E+006
             2.7969677064634417E+006
             2.7969677064634417E+006
             2.7969677064634417E+006
             2.7969677064634417E+006
             2.7969677064634417E+006
             2.7969677064634417E+006
             2.7969677064634417E+006
             2.7969677064634417E+006
             2.7969677064634417E+006
             2.7969677064634417E+006
             2.7969677064634417E+006
             2.7969677064634417E+006
             2.7969677064634417E+006
             2.7969677064634417E+006
             2.7969677064634417E+006
             2.7969677064634417E+006
             2.7969677064634417E+006
             2.7969677064634417E+006
             2.7969677064634417E+006
             2.7969677064634417E+006
             2.7969677064634417E+006
             2.7969677064634417E+006
             2.7969677064634417E+006
             2.7969677064634417E+006
             2.7969677064634417E+006
             2.7969677064634417E+006
             2.7969677064634417E+006
             2.7969677064634417E+006
             2.7969677064634417E+006
             2.7969677064634417E+006
             2.7969677064634417E+006
             2.7969677064634417E+006
             2.7969677064634417E+006
             2.7969677064634417E+006
             2.7969677064634417E+006
             2.7969677064634417E+006
             2.7969677064634417E+006
             2.7969677064634417E+006
             2.7969677064634417E+006
             2.7969677064634417E+006
             2.7969677064634417E+006
             2.7969677064634417E+006
             2.7969677064634417E+006
             2.7969677064634417E+006
             2.7969677064634417E+006
             2.7969677064634417E+006
             2.7969677064634417E+006
             2.7969677064634417E+006
             2.7969677064634417E+006
             2.7969677064634417E+006
             2.7969677064634417E+006
             2.7969677064634417E+006
             2.7969677064634417E+006
             2.7969677064634417E+006
             2.7969677064634417E+006
             2.7969677064634417E+006
             2.7969677064634417E+006
             2.7969677064634417E+006
             2.7969677064634417E+006
             2.7969677064634417E+006
             2.7969677064634417E+006
             2.7969677064634417E+006
             2.7969677064634417E+006
             2.7969677064634417E+006
             2.7969677064634417E+006
             2.7969677064634417E+006
             2.7969677064634417E+006
             2.7969677064634417E+006
             2.7969677064634417E+006
             2.7969677064634417E+006
             2.7969677064634417E+006
             2.7969677064634417E+006
             2.7969677064634417E+006
             2.7969677064634417E+006
             2.7969677064634417E+006
             2.7969677064634417E+006
             2.7969677064634417E+006
             2.7969677064634417E+006
             2.7969677064634417E+006
             2.7969677064634417E+006
             2.7969677064634417E+006
             2.7969677064634417E+006
             2.7969677064634417E+006
             2.7969677064634417E+006
             2.7969677064634417E+006
             2.7969677064634417E+006
             2.7969677064634417E+006
             2.7969677064634417E+006
             2.7969677064634417E+006
             2.7969677064634417E+006
             2.7969677064634417E+006
             2.7969677064634417E+006
             2.7969677064634417E+006
             2.7969677064634417E+006
             2.7969677064634417E+006
             2.7969677064634417E+006
             2.7969677064634417E+006
             2.7969677064634417E+006
             2.7969677064634417E+006
             2.7969677064634417E+006
             2.7969677064634417E+006
             2.7969677064634417E+006
             2.7969677064634417E+006
             2.7969677064634417E+006
             2.7969677064634417E+006
             2.7969677064634417E+006
             2.7969677064634417E+006
             2.7969677064634417E+006
             2.7969677064634417E+006
             2.7969677064634417E+006
             2.7969677064634417E+006
             2.7969677064634417E+006
             2.7969677064634417E+006
             2.7969677064634417E+006
             2.7969677064634417E+006
             2.7969677064634417E+006
             2.7969677064634417E+006
             2.7969677064634417E+006
             2.7969677064634417E+006
             2.7969677064634417E+006
             2.7969677064634417E+006
             2.7969677064634417E+006
             2.7969677064634417E+006
             2.7969677064634417E+006
             2.7969677064634417E+006
             2.7969677064634417E+006
             2.7969677064634417E+006
             2.7969677064634417E+006
             2.7969677064634417E+006
             2.7969677064634417E+006
             2.7969677064634417E+006
             2.7969677064634417E+006
         &END MASS
       &END AD_LANGEVIN
     &END THERMOSTAT
     &AVERAGES T
       &RESTART_AVERAGES
         ITIMES_START 1
         AVECPU  7.2291083211058734E+001
         AVEHUGONIOT  0.0000000000000000E+000
         AVETEMP_BARO  0.0000000000000000E+000
         AVEPOT -4.1430327500673084E+003
         AVEKIN  3.7951195963097945E-001
         AVETEMP  1.2483359940357170E+003
         AVEKIN_QM  0.0000000000000000E+000
         AVETEMP_QM  0.0000000000000000E+000
         AVEVOL  1.2804379601851415E+004
         AVECELL_A  2.3394809525124479E+001
         AVECELL_B  2.3394809525124479E+001
         AVECELL_C  2.3394809525124479E+001
         AVEALPHA  9.0000000000000000E+001
         AVEBETA  9.0000000000000000E+001
         AVEGAMMA  9.0000000000000000E+001
         AVE_ECONS -2.3062453281457994E+004
         AVE_PRESS  0.0000000000000000E+000
         AVE_PXX  0.0000000000000000E+000
       &END RESTART_AVERAGES
     &END AVERAGES
   &END MD
   &PRINT
     &TRAJECTORY SILENT
       FILENAME ucl3_md.xyz
       FORMAT XMOL
       &EACH
         MD 10
       &END EACH
     &END TRAJECTORY
     &VELOCITIES ON
     &END VELOCITIES
   &END PRINT
 &END MOTION
 &FORCE_EVAL
   METHOD QS
   &DFT
     BASIS_SET_FILE_NAME BASIS_MOLOPT
     BASIS_SET_FILE_NAME BASIS_MOLOPT_AcPP1
     POTENTIAL_FILE_NAME CUSTOM_POTENTIALS
     PLUS_U_METHOD LOWDIN
     &SCF
       MAX_SCF 10000
       EPS_SCF  2.9999999999999999E-007
       SCF_GUESS RESTART
       &OT T
         MINIMIZER CG
         PRECONDITIONER FULL_SINGLE_INVERSE
         ENERGY_GAP  1.0000000000000001E-001
       &END OT
     &END SCF
     &QS
       EPS_DEFAULT  1.0000000000000000E-010
     &END QS
     &MGRID
       NGRIDS 4
       CUTOFF  4.5000000000000000E+002
       REL_CUTOFF  6.0000000000000000E+001
     &END MGRID
     &XC
       DENSITY_CUTOFF  1.0000000000000000E-010
       GRADIENT_CUTOFF  1.0000000000000000E-010
       TAU_CUTOFF  1.0000000000000000E-010
       &XC_FUNCTIONAL NO_SHORTCUT
         &PBE T
         &END PBE
       &END XC_FUNCTIONAL
     &END XC
     &REAL_TIME_PROPAGATION
       INITIAL_WFN SCF_WFN
     &END REAL_TIME_PROPAGATION
   &END DFT
   &SUBSYS
     &RNG_INIT
 Wiener process for particle 1            1 F T F   5.5766909513522800E-01         642148684.0        2806837363.0         532497595.0        2903495979.0         165852007.0        1770476673.0             12345.0             12345.0             12345.0             12345.0             12345.0             12345.0             12345.0             12345.0             12345.0             12345.0             12345.0             12345.0
 Wiener process for particle 2            1 F T F   1.6521596407972297E+00        3955969355.0        4180288942.0        4172802990.0        2277068368.0        1049594192.0        1239502669.0        3692455944.0        1366884236.0        2968912127.0         335948734.0        4161675175.0         475798818.0        3692455944.0        1366884236.0        2968912127.0         335948734.0        4161675175.0         475798818.0
 Wiener process for particle 3            1 F T F   4.3291660979597923E-01        1863973143.0        2034282645.0        2521826434.0        1006816272.0        3227145431.0         155583885.0        1015873554.0        1310354410.0        2249465273.0         994084013.0        2912484720.0        3876682925.0        1015873554.0        1310354410.0        2249465273.0         994084013.0        2912484720.0        3876682925.0
 Wiener process for particle 4            1 F T F  -1.0811622370558207E+00        4120837608.0        2943544892.0         714621264.0         911128106.0        2207949229.0         692854241.0        2338701263.0        1119171942.0        2570676563.0         317077452.0        3194180850.0         618832124.0        2338701263.0        1119171942.0        2570676563.0         317077452.0        3194180850.0         618832124.0
 Wiener process for particle 5            1 F T F  -1.0108614378981502E+00        3224997905.0        1146172468.0        2140317704.0        1488004010.0         593450368.0        3642319842.0        1597262096.0        3906379055.0        3312112953.0        1016013135.0        4099474108.0         275305423.0        1597262096.0        3906379055.0        3312112953.0        1016013135.0        4099474108.0         275305423.0
 Wiener process for particle 6            1 F T F   8.7580780182170892E-01        1026420506.0        2129626282.0          76018371.0        3686847112.0        2767709955.0        1154836837.0          97147054.0        3131372450.0         829345164.0        3691032523.0        3006063034.0        4259826321.0          97147054.0        3131372450.0         829345164.0        3691032523.0        3006063034.0        4259826321.0
 Wiener process for particle 7            1 F T F  -1.6524339244384464E-01        2975767012.0        3990450429.0        3784959393.0        3568514204.0        3958616407.0        4139508421.0         796079799.0        2105258207.0         955365076.0        2923159030.0        4116632677.0        3067683584.0         796079799.0        2105258207.0         955365076.0        2923159030.0        4116632677.0        3067683584.0
 Wiener process for particle 8            1 F T F  -2.7745846249196793E-01        3777662853.0        2690641827.0        2627276166.0        1553499967.0        1897085957.0        1347930254.0        3281794178.0        2616230133.0        1457051261.0        2762791137.0        2480527362.0        2282316169.0        3281794178.0        2616230133.0        1457051261.0        2762791137.0        2480527362.0        2282316169.0
 Wiener process for particle 9            1 F T F  -2.8338201632789822E-01        2384190783.0        1171796963.0        1496153080.0        2462124258.0        3683164703.0        2355457280.0        3777646647.0        1837464056.0        4204654757.0         664239048.0        4190510072.0        2959195122.0        3777646647.0        1837464056.0        4204654757.0         664239048.0        4190510072.0        2959195122.0
 Wiener process for particle 10           1 F T F  -1.7250874759344886E-01        2513616665.0         266594856.0        1463457855.0        2387529202.0        2457590311.0         851022275.0        4215590817.0        3862461878.0        1087200967.0        1544910132.0         936383720.0        1611370123.0        4215590817.0        3862461878.0        1087200967.0        1544910132.0         936383720.0        1611370123.0
 Wiener process for particle 11           1 F T F  -1.1604178275159527E+00        2836805150.0         474694421.0        1417277679.0        1075897663.0        4154416433.0        1133601966.0        1683636369.0         362165168.0         814316280.0         869382050.0         980203903.0        2062101717.0        1683636369.0         362165168.0         814316280.0         869382050.0         980203903.0        2062101717.0
 Wiener process for particle 12           1 F T F   7.5639084475597723E-02        2180099158.0        4282385016.0        4111552198.0         196858295.0        1048571793.0        1535158475.0         272317999.0         166758548.0         310112982.0         201045826.0        1680231254.0         118290799.0         272317999.0         166758548.0         310112982.0         201045826.0        1680231254.0         118290799.0
 Wiener process for particle 13           1 F T F   7.8289259693563462E-01        2418553722.0         155088070.0        3891527149.0         124100505.0        1909567856.0        1843264497.0        2245755202.0        1652682525.0        2865544364.0         721509566.0         209733568.0         592362218.0        2245755202.0        1652682525.0        2865544364.0         721509566.0         209733568.0         592362218.0
 Wiener process for particle 14           1 F T F   7.7193523084297583E-02        1436084600.0        2342991395.0        2838191598.0        4224007288.0        2352492876.0        2614489794.0        3003961408.0        3529909391.0          14538032.0        3603919910.0         566682685.0        1235016484.0        3003961408.0        3529909391.0          14538032.0        3603919910.0         566682685.0        1235016484.0
 Wiener process for particle 15           1 F T F  -3.1314824466714902E-01        3839885336.0        4021154399.0        1674844639.0        2332131138.0        3663605368.0        3673484016.0         596094074.0        2279636413.0        3050913596.0        1739649456.0        2368706608.0        3058697049.0         596094074.0        2279636413.0        3050913596.0        1739649456.0        2368706608.0        3058697049.0
 Wiener process for particle 16           1 F T F  -7.6837962010381711E-01        3236106673.0        2257670375.0         389639787.0        3277264645.0        1619040624.0        2845718898.0        1437096527.0        2547142266.0        2541498983.0        2640839690.0        2160978219.0        2618657830.0        1437096527.0        2547142266.0        2541498983.0        2640839690.0        2160978219.0        2618657830.0
 Wiener process for particle 17           1 F T F   5.1380101386417118E-02        2488197832.0        2996978570.0        1250010645.0         576795231.0         706561904.0        2609732929.0        3224044943.0        1227141655.0        2220611050.0        1504589054.0        2829780440.0         108189859.0        3224044943.0        1227141655.0        2220611050.0        1504589054.0        2829780440.0         108189859.0
 Wiener process for particle 18           1 F T F   5.2765770538966650E-01        2724565090.0         745082295.0        3554466713.0        1235235315.0        1545955179.0         643618233.0         927434978.0        1593504038.0        2143021818.0        1749489845.0        1330187821.0        2371554242.0         927434978.0        1593504038.0        2143021818.0        1749489845.0        1330187821.0        2371554242.0
 Wiener process for particle 19           1 F T F   9.4400072381130540E-01        3122706600.0        1970375085.0        1649540630.0        2493454834.0        2429949754.0        4156830897.0        3446225690.0         835741554.0        2195834023.0        1297741021.0        3357053382.0         383824268.0        3446225690.0         835741554.0        2195834023.0        1297741021.0        3357053382.0         383824268.0
 Wiener process for particle 20           1 F T F   5.0584146448241518E-01        3870457152.0        2520860748.0        1761997260.0        4127164552.0         193748322.0         201228361.0        3984477137.0        1267973573.0        3770063761.0         216527865.0        1568537936.0        1200352663.0        3984477137.0        1267973573.0        3770063761.0         216527865.0        1568537936.0        1200352663.0
 Wiener process for particle 21           1 F T F  -2.7927523779354968E-01        2047691408.0         846163585.0          83434274.0         260408318.0        3444110932.0         929411281.0        2503334853.0        3179736892.0        2080184241.0        2881517721.0        3611607237.0        2639045213.0        2503334853.0        3179736892.0        2080184241.0        2881517721.0        3611607237.0        2639045213.0
 Wiener process for particle 22           1 F T F   5.2527054320125233E-01        3147441556.0        4003241215.0        2251615165.0        3438463979.0        4219687652.0        3329453984.0        2784301963.0        3004110709.0        4065265451.0        2351994899.0        1824839263.0        1473060447.0        2784301963.0        3004110709.0        4065265451.0        2351994899.0        1824839263.0        1473060447.0
 Wiener process for particle 23           1 F T F  -1.6886020296728230E+00        3760845316.0        3661585842.0        4223433411.0        3410405722.0        2102450293.0        1588505208.0        3645411182.0        1391027122.0        3995023402.0         536114258.0        1376034799.0        2391282907.0        3645411182.0        1391027122.0        3995023402.0         536114258.0        1376034799.0        2391282907.0
 Wiener process for particle 24           1 F T F   1.8449262858598066E+00        2650658348.0         429557255.0        2909349985.0        2085828852.0        1688102536.0         847011961.0        4205039797.0        2998067142.0        2737381050.0        2060484144.0          21123025.0         900610517.0        4205039797.0        2998067142.0        2737381050.0        2060484144.0          21123025.0         900610517.0
 Wiener process for particle 25           1 F T F   1.2782932231590693E+00        2338708709.0        1102619873.0        3673219822.0        2034343204.0        2020035850.0        2176784227.0        1708138263.0        1103344630.0        3131738563.0         354874525.0        1462105562.0        2799820805.0        1708138263.0        1103344630.0        3131738563.0         354874525.0        1462105562.0        2799820805.0
 Wiener process for particle 26           1 F T F  -1.0743804924946867E+00        2409626602.0        1332147978.0        2690431386.0        1742712846.0        4008473786.0        2450893371.0        1762624356.0        3338520614.0        1869672149.0        2420033342.0        3823777008.0        4112813433.0        1762624356.0        3338520614.0        1869672149.0        2420033342.0        3823777008.0        4112813433.0
 Wiener process for particle 27           1 F T F  -3.1917816329258136E-01         275343261.0         925736757.0        1765182455.0        3130069643.0         381819298.0         966766987.0        1406960847.0        2689758640.0        2086764669.0        1479781266.0        4277003072.0        4173905453.0        1406960847.0        2689758640.0        2086764669.0        1479781266.0        4277003072.0        4173905453.0
 Wiener process for particle 28           1 F T F  -2.6981401820891138E-01        1615221414.0         289727226.0         888689270.0         456846180.0        3303745951.0        3701550284.0        3217706054.0        3907922111.0        3316415646.0         934936431.0        1155310743.0        1383590847.0        3217706054.0        3907922111.0        3316415646.0         934936431.0        1155310743.0        1383590847.0