 # Version information for this restart file 
 # current date 2025-04-23 23:53:42.543
 # current working dir /home/louimatt/projects/comp_chem_project/ucl3_md_new
 # Program compiled at                              Mon Feb  5 13:19:46 MST 2024
 # Program compiled on                                             sawtoothbuild
 # Program compiled for                                                    local
 # Source code revision number                                       git:b4a17a5
 &GLOBAL
   PRINT_LEVEL LOW
   PROJECT_NAME "UCl3_md"
   RUN_TYPE MD
 &END GLOBAL
 &MOTION
   &MD
     ENSEMBLE NVT
     STEPS 10000
     TIMESTEP  1.9999999999999998E+000
     STEP_START_VAL 500
     TIME_START_VAL  9.9999999999999181E+002
     ECONS_START_VAL -4.1379789718276179E+003
     TEMPERATURE  1.2500000000000002E+003
     &THERMOSTAT
       TYPE AD_LANGEVIN
       REGION MASSIVE
       &AD_LANGEVIN
         TIMECON_NH  9.9999999999999986E+001
         TIMECON_LANGEVIN  2.4999999999999996E+000
         &CHI
             6.5446537530587214E-003
            -8.2145989612216318E-003
            -2.8728617268782325E-003
             2.6814171964631476E-003
             6.7933255145124424E-003
             7.1526725335003946E-003
             1.8122816062869033E-002
             7.8884407975947195E-004
            -8.1654962043725982E-003
             6.3334678784190942E-003
            -1.9310774810150759E-003
            -1.3253572476950120E-002
             1.0656333773816664E-003
            -2.5671055829961493E-003
            -3.3338888221987094E-004
             8.5848094937802221E-003
            -5.4311569135727811E-003
             5.5356008274195260E-003
            -1.0484902137817803E-003
             2.6730939876662366E-003
             9.8231883278325199E-003
             4.5346114781040069E-003
            -1.0774766271635235E-002
            -1.5720924568839590E-003
             1.1785739717108412E-003
             1.2574528997006127E-003
             7.4185137737417832E-004
             2.7563192260821379E-003
             1.3832192838524635E-002
             9.3588418155058292E-003
             6.6452292172599929E-003
             1.1278431215073471E-003
             7.9728741027233364E-003
             7.5294621696336897E-003
            -3.2626188511491201E-003
            -1.7539134687939277E-003
            -5.7814501376676937E-003
             2.4220361053972858E-003
             1.9908929770312126E-003
             6.9111000241684514E-004
             4.4723595155493520E-004
             6.3251370028663276E-003
            -1.0750781011833480E-002
             6.1685495861896660E-003
            -5.2361984606933299E-003
             8.3753100290339907E-004
             2.0818464453715292E-003
            -1.0874024862344843E-002
             1.1690906749308157E-003
             2.3394594963505946E-003
            -1.3980661198066529E-002
            -3.6561918659307490E-003
             1.7309642073170709E-002
            -1.2323488002501904E-003
            -5.5750498679294422E-003
            -4.4430995817053304E-003
             1.2860755840005990E-002
            -4.3969450484961431E-003
             6.0231487871240802E-003
             7.4531639895083907E-003
             6.2587392018847166E-003
            -1.0088971793557491E-003
             3.2081968895175850E-003
             3.4985673782097710E-003
            -1.7663472288702671E-003
             2.5965696602330414E-003
            -1.3495930248566275E-002
             1.3185375199153315E-002
             9.6573341442895803E-003
            -2.0684654479061954E-003
             5.5923731312434374E-003
             1.7910056680970996E-003
             1.5639957504648135E-002
             4.5187404089154842E-003
             2.7408293196725122E-003
            -5.8001095660317704E-003
            -1.0788979181760581E-003
             8.4822026441256637E-003
            -3.7160552349219450E-003
            -4.9587467240263615E-005
             2.5131593438345780E-003
            -5.3049957903643702E-003
             6.3303371894436839E-003
            -3.7202612720486838E-003
             1.0267344365726575E-002
             5.3909218890443138E-003
             4.3474761555271158E-003
            -6.2951962065917449E-003
             3.9792163037815900E-003
            -4.4263955445713642E-003
             2.2283075105237578E-002
             1.9287204332636648E-003
             9.0351481916962316E-003
            -1.1000280571304367E-003
             3.4683648846007276E-003
            -4.4284116114275459E-003
            -4.0794704554364195E-003
            -4.7891389214369286E-003
            -2.6471559404185256E-003
             3.0821256967253864E-003
            -3.3703152440685903E-004
            -7.8814261050203418E-003
             7.3824707769702645E-003
             8.7374149229192295E-003
             3.7169116957094218E-003
            -3.3158453581678140E-003
            -4.3022384217188550E-003
             3.1061074370705949E-003
             1.3758488500588925E-003
             5.9208826419750778E-003
            -9.1645847434991654E-004
            -2.6025195985967518E-003
            -6.6171608279146500E-004
             5.0956137518235736E-003
            -3.4181068149583978E-003
            -1.0625483691244181E-002
             3.5317576288305323E-004
             2.2615275928281769E-003
             3.4981112458417813E-003
             4.5671418325468919E-003
            -5.3349110424956462E-003
            -6.7424378547454155E-003
             2.5312350713215244E-003
            -1.0151156568499301E-002
            -9.6680628555865476E-003
            -8.4590932466649046E-003
             2.8197710494402674E-003
             4.7188610488191193E-003
             3.1411175828657306E-003
            -9.5455253474693511E-003
             1.8194891166334497E-003
            -6.0717682434933626E-003
            -1.4018158570205957E-004
            -1.4376583428506218E-002
            -9.8790376024381100E-003
             8.9011224035521370E-003
            -1.7804884824822089E-003
            -2.8166371250113041E-003
            -5.3446679660675428E-003
             7.8590494569275408E-003
             1.9809956445039989E-004
            -1.4952849206650663E-002
            -6.0350376799704723E-003
            -2.8194606017837840E-003
             1.2719540560598375E-002
            -4.3034485987655212E-003
            -2.2802509060083740E-003
            -4.7288744564205386E-003
             3.4803896534260888E-003
             3.9042696879097163E-003
            -6.0286657517592251E-003
             4.2077799824169638E-003
             9.4359557266281981E-004
            -1.2222912161040525E-002
            -5.5074943337583247E-003
            -4.5048287373966617E-003
            -9.9046546102769511E-003
            -5.9015685793392539E-003
            -1.6246237437022555E-003
            -2.6527100393477069E-003
             1.0762674089363143E-002
             6.2307690568703718E-003
            -2.2826195475062708E-003
            -3.9043086102726961E-003
             6.9469423678411007E-003
            -8.9299135211226895E-003
            -1.1099186694016073E-002
            -1.0641200169660288E-002
             5.6917229306936139E-003
            -5.9307906997608890E-003
             7.1806167215900602E-003
             9.6157235054112663E-003
             7.9913505297846306E-003
             2.7800224579426110E-003
            -6.2096632761959886E-003
             3.6299164379479409E-003
             2.7087333552194728E-003
            -2.4515938562295861E-003
            -4.6405744382433381E-003
            -1.3146129554772729E-002
             2.8106714713180291E-004
            -2.0668721651726117E-003
            -5.5039696277267708E-003
             8.1278078043896199E-003
             5.4018443093401154E-003
             8.0333173609920955E-003
             7.8089259393838593E-003
            -5.7229469465143491E-003
             6.5091656277937501E-003
             4.2232692869130515E-003
             9.9374115656308479E-003
            -1.2102723022104911E-002
         &END CHI
         &MASS
             2.7969677064634422E+006
             2.7969677064634422E+006
             2.7969677064634422E+006
             2.7969677064634422E+006
             2.7969677064634422E+006
             2.7969677064634422E+006
             2.7969677064634422E+006
             2.7969677064634422E+006
             2.7969677064634422E+006
             2.7969677064634422E+006
             2.7969677064634422E+006
             2.7969677064634422E+006
             2.7969677064634422E+006
             2.7969677064634422E+006
             2.7969677064634422E+006
             2.7969677064634422E+006
             2.7969677064634422E+006
             2.7969677064634422E+006
             2.7969677064634422E+006
             2.7969677064634422E+006
             2.7969677064634422E+006
             2.7969677064634422E+006
             2.7969677064634422E+006
             2.7969677064634422E+006
             2.7969677064634422E+006
             2.7969677064634422E+006
             2.7969677064634422E+006
             2.7969677064634422E+006
             2.7969677064634422E+006
             2.7969677064634422E+006
             2.7969677064634422E+006
             2.7969677064634422E+006
             2.7969677064634422E+006
             2.7969677064634422E+006
             2.7969677064634422E+006
             2.7969677064634422E+006
             2.7969677064634422E+006
             2.7969677064634422E+006
             2.7969677064634422E+006
             2.7969677064634422E+006
             2.7969677064634422E+006
             2.7969677064634422E+006
             2.7969677064634422E+006
             2.7969677064634422E+006
             2.7969677064634422E+006
             2.7969677064634422E+006
             2.7969677064634422E+006
             2.7969677064634422E+006
             2.7969677064634422E+006
             2.7969677064634422E+006
             2.7969677064634422E+006
             2.7969677064634422E+006
             2.7969677064634422E+006
             2.7969677064634422E+006
             2.7969677064634422E+006
             2.7969677064634422E+006
             2.7969677064634422E+006
             2.7969677064634422E+006
             2.7969677064634422E+006
             2.7969677064634422E+006
             2.7969677064634422E+006
             2.7969677064634422E+006
             2.7969677064634422E+006
             2.7969677064634422E+006
             2.7969677064634422E+006
             2.7969677064634422E+006
             2.7969677064634422E+006
             2.7969677064634422E+006
             2.7969677064634422E+006
             2.7969677064634422E+006
             2.7969677064634422E+006
             2.7969677064634422E+006
             2.7969677064634422E+006
             2.7969677064634422E+006
             2.7969677064634422E+006
             2.7969677064634422E+006
             2.7969677064634422E+006
             2.7969677064634422E+006
             2.7969677064634422E+006
             2.7969677064634422E+006
             2.7969677064634422E+006
             2.7969677064634422E+006
             2.7969677064634422E+006
             2.7969677064634422E+006
             2.7969677064634422E+006
             2.7969677064634422E+006
             2.7969677064634422E+006
             2.7969677064634422E+006
             2.7969677064634422E+006
             2.7969677064634422E+006
             2.7969677064634422E+006
             2.7969677064634422E+006
             2.7969677064634422E+006
             2.7969677064634422E+006
             2.7969677064634422E+006
             2.7969677064634422E+006
             2.7969677064634422E+006
             2.7969677064634422E+006
             2.7969677064634422E+006
             2.7969677064634422E+006
             2.7969677064634422E+006
             2.7969677064634422E+006
             2.7969677064634422E+006
             2.7969677064634422E+006
             2.7969677064634422E+006
             2.7969677064634422E+006
             2.7969677064634422E+006
             2.7969677064634422E+006
             2.7969677064634422E+006
             2.7969677064634422E+006
             2.7969677064634422E+006
             2.7969677064634422E+006
             2.7969677064634422E+006
             2.7969677064634422E+006
             2.7969677064634422E+006
             2.7969677064634422E+006
             2.7969677064634422E+006
             2.7969677064634422E+006
             2.7969677064634422E+006
             2.7969677064634422E+006
             2.7969677064634422E+006
             2.7969677064634422E+006
             2.7969677064634422E+006
             2.7969677064634422E+006
             2.7969677064634422E+006
             2.7969677064634422E+006
             2.7969677064634422E+006
             2.7969677064634422E+006
             2.7969677064634422E+006
             2.7969677064634422E+006
             2.7969677064634422E+006
             2.7969677064634422E+006
             2.7969677064634422E+006
             2.7969677064634422E+006
             2.7969677064634422E+006
             2.7969677064634422E+006
             2.7969677064634422E+006
             2.7969677064634422E+006
             2.7969677064634422E+006
             2.7969677064634422E+006
             2.7969677064634422E+006
             2.7969677064634422E+006
             2.7969677064634422E+006
             2.7969677064634422E+006
             2.7969677064634422E+006
             2.7969677064634422E+006
             2.7969677064634422E+006
             2.7969677064634422E+006
             2.7969677064634422E+006
             2.7969677064634422E+006
             2.7969677064634422E+006
             2.7969677064634422E+006
             2.7969677064634422E+006
             2.7969677064634422E+006
             2.7969677064634422E+006
             2.7969677064634422E+006
             2.7969677064634422E+006
             2.7969677064634422E+006
             2.7969677064634422E+006
             2.7969677064634422E+006
             2.7969677064634422E+006
             2.7969677064634422E+006
             2.7969677064634422E+006
             2.7969677064634422E+006
             2.7969677064634422E+006
             2.7969677064634422E+006
             2.7969677064634422E+006
             2.7969677064634422E+006
             2.7969677064634422E+006
             2.7969677064634422E+006
             2.7969677064634422E+006
             2.7969677064634422E+006
             2.7969677064634422E+006
             2.7969677064634422E+006
             2.7969677064634422E+006
             2.7969677064634422E+006
             2.7969677064634422E+006
             2.7969677064634422E+006
             2.7969677064634422E+006
             2.7969677064634422E+006
             2.7969677064634422E+006
             2.7969677064634422E+006
             2.7969677064634422E+006
             2.7969677064634422E+006
             2.7969677064634422E+006
             2.7969677064634422E+006
             2.7969677064634422E+006
             2.7969677064634422E+006
             2.7969677064634422E+006
             2.7969677064634422E+006
             2.7969677064634422E+006
             2.7969677064634422E+006
         &END MASS
       &END AD_LANGEVIN
     &END THERMOSTAT
     &AVERAGES T
       &RESTART_AVERAGES
         ITIMES_START 1
         AVECPU  7.7908685265535425E+001
         AVEHUGONIOT  0.0000000000000000E+000
         AVETEMP_BARO  0.0000000000000000E+000
         AVEPOT -4.1422902545005581E+003
         AVEKIN  3.8111232986734200E-001
         AVETEMP  1.2536001226596923E+003
         AVEKIN_QM  0.0000000000000000E+000
         AVETEMP_QM  0.0000000000000000E+000
         AVEVOL  1.2804379601851568E+004
         AVECELL_A  2.3394809525124277E+001
         AVECELL_B  2.3394809525124277E+001
         AVECELL_C  2.3394809525124277E+001
         AVEALPHA  9.0000000000000000E+001
         AVEBETA  9.0000000000000000E+001
         AVEGAMMA  9.0000000000000000E+001
         AVE_ECONS -1.9389432888479601E+004
         AVE_PRESS  0.0000000000000000E+000
         AVE_PXX  0.0000000000000000E+000
       &END RESTART_AVERAGES
     &END AVERAGES
   &END MD
   &PRINT
     &TRAJECTORY SILENT
       FILENAME ucl3_md.xyz
       FORMAT XMOL
       &EACH
         MD 10
       &END EACH
     &END TRAJECTORY
     &VELOCITIES ON
     &END VELOCITIES
   &END PRINT
 &END MOTION
 &FORCE_EVAL
   METHOD QS
   &DFT
     BASIS_SET_FILE_NAME BASIS_MOLOPT
     BASIS_SET_FILE_NAME BASIS_MOLOPT_AcPP1
     POTENTIAL_FILE_NAME CUSTOM_POTENTIALS
     PLUS_U_METHOD LOWDIN
     &SCF
       MAX_SCF 10000
       EPS_SCF  2.9999999999999999E-007
       SCF_GUESS RESTART
       &OT T
         MINIMIZER CG
         PRECONDITIONER FULL_SINGLE_INVERSE
         ENERGY_GAP  1.0000000000000001E-001
       &END OT
     &END SCF
     &QS
       EPS_DEFAULT  1.0000000000000000E-010
     &END QS
     &MGRID
       NGRIDS 4
       CUTOFF  4.5000000000000000E+002
       REL_CUTOFF  6.0000000000000000E+001
     &END MGRID
     &XC
       DENSITY_CUTOFF  1.0000000000000000E-010
       GRADIENT_CUTOFF  1.0000000000000000E-010
       TAU_CUTOFF  1.0000000000000000E-010
       &XC_FUNCTIONAL NO_SHORTCUT
         &PBE T
         &END PBE
       &END XC_FUNCTIONAL
     &END XC
   &END DFT
   &SUBSYS
     &RNG_INIT
 Wiener process for particle 1            1 F T F  -5.5417611138974365E-02        3455087463.0        2678193510.0        4083526916.0         633667671.0         645119516.0        2965206305.0             12345.0             12345.0             12345.0             12345.0             12345.0             12345.0             12345.0             12345.0             12345.0             12345.0             12345.0             12345.0
 Wiener process for particle 2            1 F T F  -8.3150099756391027E-01        2803028260.0        1980979633.0        3685785829.0        2140345108.0        1231192040.0        2822578908.0        3692455944.0        1366884236.0        2968912127.0         335948734.0        4161675175.0         475798818.0        3692455944.0        1366884236.0        2968912127.0         335948734.0        4161675175.0         475798818.0
 Wiener process for particle 3            1 F T F  -1.1515073337100641E+00         648532672.0        2087594000.0        1937723505.0        2777115000.0         652811212.0         880251799.0        1015873554.0        1310354410.0        2249465273.0         994084013.0        2912484720.0        3876682925.0        1015873554.0        1310354410.0        2249465273.0         994084013.0        2912484720.0        3876682925.0
 Wiener process for particle 4            1 F T F   5.6675411103428619E-01        3878666776.0        1973037482.0        3797706244.0        4098113817.0        2726934950.0        2766702120.0        2338701263.0        1119171942.0        2570676563.0         317077452.0        3194180850.0         618832124.0        2338701263.0        1119171942.0        2570676563.0         317077452.0        3194180850.0         618832124.0
 Wiener process for particle 5            1 F T F  -7.6368976816149048E-01         176762665.0        1399417768.0         373589390.0        3340830654.0        1101585487.0        3913727911.0        1597262096.0        3906379055.0        3312112953.0        1016013135.0        4099474108.0         275305423.0        1597262096.0        3906379055.0        3312112953.0        1016013135.0        4099474108.0         275305423.0
 Wiener process for particle 6            1 F T F   1.8124275738603368E-01        1573213249.0         423711909.0        3487332282.0        2239380068.0        1610183558.0        1368752221.0          97147054.0        3131372450.0         829345164.0        3691032523.0        3006063034.0        4259826321.0          97147054.0        3131372450.0         829345164.0        3691032523.0        3006063034.0        4259826321.0
 Wiener process for particle 7            1 F T F  -1.4056557585054792E+00        1422820733.0         677457699.0        1121652134.0        3889386135.0        4114143609.0        3099531789.0         796079799.0        2105258207.0         955365076.0        2923159030.0        4116632677.0        3067683584.0         796079799.0        2105258207.0         955365076.0        2923159030.0        4116632677.0        3067683584.0
 Wiener process for particle 8            1 F T F   1.6908902370984769E+00        1582902115.0        4209086270.0        3192186897.0        2202526035.0        1017101038.0        3967825701.0        3281794178.0        2616230133.0        1457051261.0        2762791137.0        2480527362.0        2282316169.0        3281794178.0        2616230133.0        1457051261.0        2762791137.0        2480527362.0        2282316169.0
 Wiener process for particle 9            1 F T F   6.6551114902164221E-01         104848511.0        4288267976.0         501782529.0        1507487628.0         350253510.0        2222605996.0        3777646647.0        1837464056.0        4204654757.0         664239048.0        4190510072.0        2959195122.0        3777646647.0        1837464056.0        4204654757.0         664239048.0        4190510072.0        2959195122.0
 Wiener process for particle 10           1 F T F  -5.4303456554242302E-01         402813833.0        4190299051.0         421881631.0        1231984893.0        2552166584.0        2986560917.0        4215590817.0        3862461878.0        1087200967.0        1544910132.0         936383720.0        1611370123.0        4215590817.0        3862461878.0        1087200967.0        1544910132.0         936383720.0        1611370123.0
 Wiener process for particle 11           1 F T F  -5.0458964113855242E-01         645345454.0         454531085.0         723661932.0        2509696102.0        3169053573.0        2182592373.0        1683636369.0         362165168.0         814316280.0         869382050.0         980203903.0        2062101717.0        1683636369.0         362165168.0         814316280.0         869382050.0         980203903.0        2062101717.0
 Wiener process for particle 12           1 F T F   2.3984611302660541E+00        3785453262.0        1497843983.0         153566045.0          64078288.0        3250612969.0        2454527941.0         272317999.0         166758548.0         310112982.0         201045826.0        1680231254.0         118290799.0         272317999.0         166758548.0         310112982.0         201045826.0        1680231254.0         118290799.0
 Wiener process for particle 13           1 F T F  -6.2276192478872439E-01        1354479403.0        2942173130.0        2864122951.0        2525423389.0        2617599145.0         334839809.0        2245755202.0        1652682525.0        2865544364.0         721509566.0         209733568.0         592362218.0        2245755202.0        1652682525.0        2865544364.0         721509566.0         209733568.0         592362218.0
 Wiener process for particle 14           1 F T F  -1.0584519290018519E+00        2662441787.0        1686167535.0        2828793990.0         914226974.0         516530515.0        1258664201.0        3003961408.0        3529909391.0          14538032.0        3603919910.0         566682685.0        1235016484.0        3003961408.0        3529909391.0          14538032.0        3603919910.0         566682685.0        1235016484.0
 Wiener process for particle 15           1 F T F  -8.8162522727414117E-01        3995534963.0        1729015783.0         182825861.0        3887601139.0        4112798708.0        3953253243.0         596094074.0        2279636413.0        3050913596.0        1739649456.0        2368706608.0        3058697049.0         596094074.0        2279636413.0        3050913596.0        1739649456.0        2368706608.0        3058697049.0
 Wiener process for particle 16           1 F T F  -1.7119247528561889E+00        2331655204.0        1398561172.0         967551097.0        2369143475.0        3976535424.0        1725584457.0        1437096527.0        2547142266.0        2541498983.0        2640839690.0        2160978219.0        2618657830.0        1437096527.0        2547142266.0        2541498983.0        2640839690.0        2160978219.0        2618657830.0
 Wiener process for particle 17           1 F T F   1.3323518224580073E+00         972867166.0        3717255593.0        2405705845.0        1727068380.0         871563186.0        2298932038.0        3224044943.0        1227141655.0        2220611050.0        1504589054.0        2829780440.0         108189859.0        3224044943.0        1227141655.0        2220611050.0        1504589054.0        2829780440.0         108189859.0
 Wiener process for particle 18           1 F T F   6.9026711654401246E-02        2555445441.0        2364530510.0         114296393.0        2086857616.0          53871879.0        1636408018.0         927434978.0        1593504038.0        2143021818.0        1749489845.0        1330187821.0        2371554242.0         927434978.0        1593504038.0        2143021818.0        1749489845.0        1330187821.0        2371554242.0
 Wiener process for particle 19           1 F T F  -9.7436466002271138E-01         104112442.0        1713299084.0        1333772477.0        2277915549.0         315904425.0        2844102320.0        3446225690.0         835741554.0        2195834023.0        1297741021.0        3357053382.0         383824268.0        3446225690.0         835741554.0        2195834023.0        1297741021.0        3357053382.0         383824268.0
 Wiener process for particle 20           1 F T F  -5.8511104072754194E-01        1161045827.0         462570511.0         580957359.0        1826202813.0        3131613429.0        1174669361.0        3984477137.0        1267973573.0        3770063761.0         216527865.0        1568537936.0        1200352663.0        3984477137.0        1267973573.0        3770063761.0         216527865.0        1568537936.0        1200352663.0
 Wiener process for particle 21           1 F T F   5.0864485874474274E-01        1007575405.0         327070675.0        1036154203.0         105097478.0        2136672485.0        3258430761.0        2503334853.0        3179736892.0        2080184241.0        2881517721.0        3611607237.0        2639045213.0        2503334853.0        3179736892.0        2080184241.0        2881517721.0        3611607237.0        2639045213.0
 Wiener process for particle 22           1 F T F   1.0796194401191524E-01        2993636666.0        2176465957.0        3763307770.0         143900159.0        3919264680.0        3095620971.0        2784301963.0        3004110709.0        4065265451.0        2351994899.0        1824839263.0        1473060447.0        2784301963.0        3004110709.0        4065265451.0        2351994899.0        1824839263.0        1473060447.0
 Wiener process for particle 23           1 F T F  -5.6645500819438666E-01        2331589776.0        2360145798.0        2841264027.0        1314375076.0        1525865027.0        3836968854.0        3645411182.0        1391027122.0        3995023402.0         536114258.0        1376034799.0        2391282907.0        3645411182.0        1391027122.0        3995023402.0         536114258.0        1376034799.0        2391282907.0
 Wiener process for particle 24           1 F T F  -2.0005859862343617E-02        1722202419.0        3246471210.0        3698289716.0        3115598759.0        1434216238.0         510968692.0        4205039797.0        2998067142.0        2737381050.0        2060484144.0          21123025.0         900610517.0        4205039797.0        2998067142.0        2737381050.0        2060484144.0          21123025.0         900610517.0
 Wiener process for particle 25           1 F T F   7.0973617526845911E-01         117968049.0        4060205284.0        3484438245.0        1447103679.0        1784697354.0        3429218381.0        1708138263.0        1103344630.0        3131738563.0         354874525.0        1462105562.0        2799820805.0        1708138263.0        1103344630.0        3131738563.0         354874525.0        1462105562.0        2799820805.0
 Wiener process for particle 26           1 F T F   5.5673809011647557E-01         469062956.0        2063377086.0         222778814.0        4050588170.0        3806911032.0        2030931721.0        1762624356.0        3338520614.0        1869672149.0        2420033342.0        3823777008.0        4112813433.0        1762624356.0        3338520614.0        1869672149.0        2420033342.0        3823777008.0        4112813433.0
 Wiener process for particle 27           1 F T F   8.0514549522242140E-01         276851041.0         767078961.0        1659228729.0        3102457036.0        1627287060.0        1067625078.0        1406960847.0        2689758640.0        2086764669.0        1479781266.0        4277003072.0        4173905453.0        1406960847.0        2689758640.0        2086764669.0        1479781266.0        4277003072.0        4173905453.0
 Wiener process for particle 28           1 F T F  -1.6545645450197264E+00        2816588989.0        1876378533.0         202430200.0        1317602638.0         457346366.0        1065355057.0        3217706054.0        3907922111.0        3316415646.0         934936431.0        1155310743.0        1383590847.0        3217706054.0        3907922111.0        3316415646.0         934936431.0        1155310743.0        1383590847.0
 Wiener process for particle 29           1 F T F   2.0214035514529013E-01        2482369590.0        3988258043.0        1960489559.0        3306523190.0        1640292222.0         393314382.0        2996242832.0        2506376012.0        1182520337.0         938957435.0        3286002927.0        1946707306.0        2996242832.0        2506376012.0        1182520337.0         938957435.0        3286002927.0        1946707306.0