 # Version information for this restart file 
 # current date 2025-04-25 21:02:56.789
 # current working dir /home/louimatt/projects/comp_chem_project/ucl3_md_new
 # Program compiled at                              Mon Feb  5 13:19:46 MST 2024
 # Program compiled on                                             sawtoothbuild
 # Program compiled for                                                    local
 # Source code revision number                                       git:b4a17a5
 &GLOBAL
   PRINT_LEVEL LOW
   PROJECT_NAME "UCl3_md"
   RUN_TYPE MD
 &END GLOBAL
 &MOTION
   &MD
     ENSEMBLE NVT
     STEPS 10000
     TIMESTEP  1.9999999999999998E+000
     STEP_START_VAL 2500
     TIME_START_VAL  4.9999999999997981E+003
     ECONS_START_VAL -4.1379789718276179E+003
     TEMPERATURE  1.2500000000000002E+003
     &THERMOSTAT
       TYPE AD_LANGEVIN
       REGION MASSIVE
       &AD_LANGEVIN
         TIMECON_NH  9.9999999999999986E+001
         TIMECON_LANGEVIN  2.4999999999999996E+000
         &CHI
             2.8736809147426054E-003
            -4.8406434988429664E-003
            -5.9117907112403809E-003
             1.1004212504334216E-002
             3.6113501382043795E-003
             3.7054359249441412E-003
             1.1446393223906150E-002
            -1.4428064732169317E-002
            -2.4547253433113203E-002
            -6.7149505954912942E-003
            -1.6789108375585643E-002
             1.6731907927063532E-003
            -1.1825340086958569E-002
            -6.6818148707748675E-003
            -7.4036931543808053E-003
             5.0366138217511095E-003
            -7.8482558789871072E-003
             7.7700263988292285E-003
            -2.6723934231794992E-003
             1.1818448716962106E-002
             8.1336628676731519E-003
             1.6612266706970014E-002
             7.9751675984101322E-003
             5.8406167910040668E-003
            -1.3216971509438343E-002
             2.8193388458126645E-003
            -7.2752063902947021E-003
            -2.0929439584204478E-002
             1.4365593918744890E-002
             3.9067092022867459E-003
            -1.0913568760764131E-002
            -5.3472224706810675E-003
            -3.9284764142857543E-003
             1.5732697403197937E-002
            -8.7250027877697357E-003
            -1.3534856646793155E-002
            -2.4500575652944851E-003
             3.9300784084698448E-003
             2.8737453970424111E-003
            -5.3294569603674555E-003
             3.1220282856452301E-004
            -5.7844438268437005E-003
             1.8150409453308368E-003
             3.0883792055764608E-003
            -2.2925227641949972E-003
            -1.8532605710920757E-002
             1.7129153029484909E-002
            -3.5058201569817551E-004
            -2.6771916399857332E-004
             8.0552943303495612E-003
            -1.9510423902195297E-003
             1.8472828125117085E-003
             8.3180787748408699E-003
             1.5262934178358417E-002
             7.3062984468450082E-003
             9.9581619639189482E-003
             1.1994029617217808E-002
             8.0876748224828401E-003
             9.0265304309147549E-003
             1.2130864126977952E-002
             7.4508237340975888E-003
             9.5942330615599210E-003
             1.0919310814687588E-003
             9.1728215349820893E-003
            -2.4765561055208577E-003
             1.2637158353902087E-002
            -2.8368430453781051E-002
             9.1720144244154828E-003
            -9.1300304854737913E-004
            -1.2987848501849204E-002
            -7.4807188718917315E-003
            -1.1374426993232351E-002
             4.7960231682183489E-003
            -1.5014781898462707E-002
             4.9872272459714059E-003
            -1.3814428006215131E-002
             1.6819242179176084E-003
            -2.0206340063753464E-002
             1.1048969882203445E-003
            -4.9259472480973629E-003
            -9.0241576685158066E-003
             1.1036668678576533E-002
             5.0045608844955392E-003
            -4.4046342118889492E-003
            -6.2104966629746787E-004
            -4.8962565821772282E-003
             5.3757558819051881E-003
             3.6747724665949972E-003
             9.8472289822565534E-003
             1.0236391103267217E-003
             1.1006768608028947E-002
             5.3275145360519489E-004
             2.7021215416869085E-003
             1.2805996213521936E-002
             1.0535659809876512E-002
            -1.0873087476956692E-003
            -1.1896656100044799E-002
            -8.5582994889231243E-003
             1.1633308466039358E-002
             1.2756309694456616E-002
             8.4671986931838215E-003
            -1.0027552744398732E-002
             1.9734131402229339E-002
             7.8855538985013619E-003
             8.8242149068917496E-003
            -1.6799499445493613E-002
            -1.3734546549220098E-002
            -1.0294958964893774E-002
            -5.1177442881227770E-003
            -7.6720983952469745E-003
            -5.0939951262265817E-003
             2.5953766661397097E-003
            -2.3541945356210302E-002
             1.3180718348385530E-002
             1.4770249725437114E-002
             8.5344009643390402E-003
             4.0795853550065850E-003
            -6.0967755707587975E-003
            -3.2659835014936683E-003
            -1.3710612634390911E-003
            -7.0529872395782298E-003
             5.1336188926703989E-003
             4.0536814065349220E-003
             6.8166976529569680E-003
            -8.5047078771221061E-003
             6.7447602159076553E-003
             1.1853634849893369E-002
            -2.6903001654763861E-003
             5.3369505869030704E-003
            -1.3194607806721156E-002
             1.1063260919191045E-002
             1.3184572133018531E-003
             4.1342884618988662E-003
            -1.0662830516796763E-002
            -2.0631816823694096E-002
             3.4936688774434939E-003
             1.8515167984620960E-003
             9.5481438472876205E-003
             5.1287276991659071E-003
            -6.1886920209445508E-003
             8.1667923748120967E-004
            -4.3319745188101794E-003
            -1.4556914727127754E-003
            -1.5805418137975656E-003
             4.4795518494558572E-003
             1.5470699550040900E-003
            -8.2379999528408594E-003
            -1.1786962650432126E-002
            -7.0803271854818208E-003
            -4.8780421306634142E-004
             4.5824825806694419E-003
             2.0310758919409904E-002
            -8.1736513841135325E-004
            -1.9863960292576737E-002
            -1.5112407382147145E-002
            -5.3266368848360413E-003
            -6.3419948056303186E-003
            -3.3633018645679107E-003
             2.1973063924660946E-002
            -5.6000641932757375E-003
             9.5161359046374277E-003
             4.7564918821325188E-003
            -5.1860065450016904E-003
            -1.1511494458944452E-003
            -8.1879564341377498E-003
             5.6973038376125973E-003
             2.7465674387822880E-003
            -1.4400320514679894E-002
            -5.1159982662571249E-003
            -1.2367606124721790E-002
            -6.2357617859116719E-003
             2.8635853101930828E-002
            -1.7461325967050089E-002
             4.2531735166271793E-003
            -3.4252312727532917E-003
             1.5794166352474007E-002
            -2.6055724333916824E-003
            -6.8385287759007026E-004
            -2.0529055550259304E-003
            -2.9471469842287386E-002
            -1.1649195753328711E-002
            -9.0987383261520258E-003
            -8.4456967346553512E-003
             1.6280020219424888E-003
             1.8530349817760735E-004
             1.2039823999439130E-002
             1.0447454827900895E-003
            -2.2548910334125737E-003
             4.3080989600991042E-003
            -1.2324533688684021E-003
             2.0419587637145677E-003
            -2.9562822431462047E-003
         &END CHI
         &MASS
             2.7969677064634417E+006
             2.7969677064634417E+006
             2.7969677064634417E+006
             2.7969677064634417E+006
             2.7969677064634417E+006
             2.7969677064634417E+006
             2.7969677064634417E+006
             2.7969677064634417E+006
             2.7969677064634417E+006
             2.7969677064634417E+006
             2.7969677064634417E+006
             2.7969677064634417E+006
             2.7969677064634417E+006
             2.7969677064634417E+006
             2.7969677064634417E+006
             2.7969677064634417E+006
             2.7969677064634417E+006
             2.7969677064634417E+006
             2.7969677064634417E+006
             2.7969677064634417E+006
             2.7969677064634417E+006
             2.7969677064634417E+006
             2.7969677064634417E+006
             2.7969677064634417E+006
             2.7969677064634417E+006
             2.7969677064634417E+006
             2.7969677064634417E+006
             2.7969677064634417E+006
             2.7969677064634417E+006
             2.7969677064634417E+006
             2.7969677064634417E+006
             2.7969677064634417E+006
             2.7969677064634417E+006
             2.7969677064634417E+006
             2.7969677064634417E+006
             2.7969677064634417E+006
             2.7969677064634417E+006
             2.7969677064634417E+006
             2.7969677064634417E+006
             2.7969677064634417E+006
             2.7969677064634417E+006
             2.7969677064634417E+006
             2.7969677064634417E+006
             2.7969677064634417E+006
             2.7969677064634417E+006
             2.7969677064634417E+006
             2.7969677064634417E+006
             2.7969677064634417E+006
             2.7969677064634417E+006
             2.7969677064634417E+006
             2.7969677064634417E+006
             2.7969677064634417E+006
             2.7969677064634417E+006
             2.7969677064634417E+006
             2.7969677064634417E+006
             2.7969677064634417E+006
             2.7969677064634417E+006
             2.7969677064634417E+006
             2.7969677064634417E+006
             2.7969677064634417E+006
             2.7969677064634417E+006
             2.7969677064634417E+006
             2.7969677064634417E+006
             2.7969677064634417E+006
             2.7969677064634417E+006
             2.7969677064634417E+006
             2.7969677064634417E+006
             2.7969677064634417E+006
             2.7969677064634417E+006
             2.7969677064634417E+006
             2.7969677064634417E+006
             2.7969677064634417E+006
             2.7969677064634417E+006
             2.7969677064634417E+006
             2.7969677064634417E+006
             2.7969677064634417E+006
             2.7969677064634417E+006
             2.7969677064634417E+006
             2.7969677064634417E+006
             2.7969677064634417E+006
             2.7969677064634417E+006
             2.7969677064634417E+006
             2.7969677064634417E+006
             2.7969677064634417E+006
             2.7969677064634417E+006
             2.7969677064634417E+006
             2.7969677064634417E+006
             2.7969677064634417E+006
             2.7969677064634417E+006
             2.7969677064634417E+006
             2.7969677064634417E+006
             2.7969677064634417E+006
             2.7969677064634417E+006
             2.7969677064634417E+006
             2.7969677064634417E+006
             2.7969677064634417E+006
             2.7969677064634417E+006
             2.7969677064634417E+006
             2.7969677064634417E+006
             2.7969677064634417E+006
             2.7969677064634417E+006
             2.7969677064634417E+006
             2.7969677064634417E+006
             2.7969677064634417E+006
             2.7969677064634417E+006
             2.7969677064634417E+006
             2.7969677064634417E+006
             2.7969677064634417E+006
             2.7969677064634417E+006
             2.7969677064634417E+006
             2.7969677064634417E+006
             2.7969677064634417E+006
             2.7969677064634417E+006
             2.7969677064634417E+006
             2.7969677064634417E+006
             2.7969677064634417E+006
             2.7969677064634417E+006
             2.7969677064634417E+006
             2.7969677064634417E+006
             2.7969677064634417E+006
             2.7969677064634417E+006
             2.7969677064634417E+006
             2.7969677064634417E+006
             2.7969677064634417E+006
             2.7969677064634417E+006
             2.7969677064634417E+006
             2.7969677064634417E+006
             2.7969677064634417E+006
             2.7969677064634417E+006
             2.7969677064634417E+006
             2.7969677064634417E+006
             2.7969677064634417E+006
             2.7969677064634417E+006
             2.7969677064634417E+006
             2.7969677064634417E+006
             2.7969677064634417E+006
             2.7969677064634417E+006
             2.7969677064634417E+006
             2.7969677064634417E+006
             2.7969677064634417E+006
             2.7969677064634417E+006
             2.7969677064634417E+006
             2.7969677064634417E+006
             2.7969677064634417E+006
             2.7969677064634417E+006
             2.7969677064634417E+006
             2.7969677064634417E+006
             2.7969677064634417E+006
             2.7969677064634417E+006
             2.7969677064634417E+006
             2.7969677064634417E+006
             2.7969677064634417E+006
             2.7969677064634417E+006
             2.7969677064634417E+006
             2.7969677064634417E+006
             2.7969677064634417E+006
             2.7969677064634417E+006
             2.7969677064634417E+006
             2.7969677064634417E+006
             2.7969677064634417E+006
             2.7969677064634417E+006
             2.7969677064634417E+006
             2.7969677064634417E+006
             2.7969677064634417E+006
             2.7969677064634417E+006
             2.7969677064634417E+006
             2.7969677064634417E+006
             2.7969677064634417E+006
             2.7969677064634417E+006
             2.7969677064634417E+006
             2.7969677064634417E+006
             2.7969677064634417E+006
             2.7969677064634417E+006
             2.7969677064634417E+006
             2.7969677064634417E+006
             2.7969677064634417E+006
             2.7969677064634417E+006
             2.7969677064634417E+006
             2.7969677064634417E+006
             2.7969677064634417E+006
             2.7969677064634417E+006
             2.7969677064634417E+006
             2.7969677064634417E+006
             2.7969677064634417E+006
             2.7969677064634417E+006
             2.7969677064634417E+006
             2.7969677064634417E+006
             2.7969677064634417E+006
             2.7969677064634417E+006
             2.7969677064634417E+006
             2.7969677064634417E+006
             2.7969677064634417E+006
         &END MASS
       &END AD_LANGEVIN
     &END THERMOSTAT
     &AVERAGES T
       &RESTART_AVERAGES
         ITIMES_START 1
         AVECPU  7.5853269503625157E+001
         AVEHUGONIOT  0.0000000000000000E+000
         AVETEMP_BARO  0.0000000000000000E+000
         AVEPOT -4.1429275519909106E+003
         AVEKIN  3.7986441219891948E-001
         AVETEMP  1.2494953230517999E+003
         AVEKIN_QM  0.0000000000000000E+000
         AVETEMP_QM  0.0000000000000000E+000
         AVEVOL  1.2804379601851517E+004
         AVECELL_A  2.3394809525124273E+001
         AVECELL_B  2.3394809525124273E+001
         AVECELL_C  2.3394809525124273E+001
         AVEALPHA  9.0000000000000000E+001
         AVEBETA  9.0000000000000000E+001
         AVEGAMMA  9.0000000000000000E+001
         AVE_ECONS -2.2541558084124026E+004
         AVE_PRESS  0.0000000000000000E+000
         AVE_PXX  0.0000000000000000E+000
       &END RESTART_AVERAGES
     &END AVERAGES
   &END MD
   &PRINT
     &TRAJECTORY SILENT
       FILENAME ucl3_md.xyz
       FORMAT XMOL
       &EACH
         MD 10
       &END EACH
     &END TRAJECTORY
     &VELOCITIES ON
     &END VELOCITIES
   &END PRINT
 &END MOTION
 &FORCE_EVAL
   METHOD QS
   &DFT
     BASIS_SET_FILE_NAME BASIS_MOLOPT
     BASIS_SET_FILE_NAME BASIS_MOLOPT_AcPP1
     POTENTIAL_FILE_NAME CUSTOM_POTENTIALS
     PLUS_U_METHOD LOWDIN
     &SCF
       MAX_SCF 10000
       EPS_SCF  2.9999999999999999E-007
       SCF_GUESS RESTART
       &OT T
         MINIMIZER CG
         PRECONDITIONER FULL_SINGLE_INVERSE
         ENERGY_GAP  1.0000000000000001E-001
       &END OT
     &END SCF
     &QS
       EPS_DEFAULT  1.0000000000000000E-010
     &END QS
     &MGRID
       NGRIDS 4
       CUTOFF  4.5000000000000000E+002
       REL_CUTOFF  6.0000000000000000E+001
     &END MGRID
     &XC
       DENSITY_CUTOFF  1.0000000000000000E-010
       GRADIENT_CUTOFF  1.0000000000000000E-010
       TAU_CUTOFF  1.0000000000000000E-010
       &XC_FUNCTIONAL NO_SHORTCUT
         &PBE T
         &END PBE
       &END XC_FUNCTIONAL
     &END XC
     &REAL_TIME_PROPAGATION
       INITIAL_WFN SCF_WFN
     &END REAL_TIME_PROPAGATION
   &END DFT
   &SUBSYS
     &RNG_INIT
 Wiener process for particle 1            1 F T F  -1.0450645409054753E-01         592580224.0        3024339468.0        1867496225.0        3949961873.0        1275655855.0        3578968833.0             12345.0             12345.0             12345.0             12345.0             12345.0             12345.0             12345.0             12345.0             12345.0             12345.0             12345.0             12345.0
 Wiener process for particle 2            1 F T F   2.4968353157064147E+00        1589564381.0         295311212.0        4040568792.0         199806213.0        1993652706.0        2246413387.0        3692455944.0        1366884236.0        2968912127.0         335948734.0        4161675175.0         475798818.0        3692455944.0        1366884236.0        2968912127.0         335948734.0        4161675175.0         475798818.0
 Wiener process for particle 3            1 F T F   1.8415020721370922E-02        3088029359.0         741977972.0         334473456.0        1030050677.0        2856365259.0        2774060132.0        1015873554.0        1310354410.0        2249465273.0         994084013.0        2912484720.0        3876682925.0        1015873554.0        1310354410.0        2249465273.0         994084013.0        2912484720.0        3876682925.0
 Wiener process for particle 4            1 F T F  -5.1849137512470613E-03        1617868732.0            386271.0        1889385582.0        2508448813.0        2173330065.0        2421600720.0        2338701263.0        1119171942.0        2570676563.0         317077452.0        3194180850.0         618832124.0        2338701263.0        1119171942.0        2570676563.0         317077452.0        3194180850.0         618832124.0
 Wiener process for particle 5            1 F T F  -6.1847603236891524E-01         856088422.0         969384744.0        3181223801.0         616341940.0          50164838.0        1437860567.0        1597262096.0        3906379055.0        3312112953.0        1016013135.0        4099474108.0         275305423.0        1597262096.0        3906379055.0        3312112953.0        1016013135.0        4099474108.0         275305423.0
 Wiener process for particle 6            1 F T F  -5.1909661985826902E-02        2340033094.0        1360230024.0         496440705.0        3775036814.0        3545146823.0         692866715.0          97147054.0        3131372450.0         829345164.0        3691032523.0        3006063034.0        4259826321.0          97147054.0        3131372450.0         829345164.0        3691032523.0        3006063034.0        4259826321.0
 Wiener process for particle 7            1 F T F   1.8256181146281711E-01        2549275147.0         921924343.0          50762385.0        4181205538.0        2700679366.0        1752986915.0         796079799.0        2105258207.0         955365076.0        2923159030.0        4116632677.0        3067683584.0         796079799.0        2105258207.0         955365076.0        2923159030.0        4116632677.0        3067683584.0
 Wiener process for particle 8            1 F T F  -5.0935537796466535E-01         992585682.0        2414439276.0        3917788005.0        4108547727.0         958458010.0        1494670724.0        3281794178.0        2616230133.0        1457051261.0        2762791137.0        2480527362.0        2282316169.0        3281794178.0        2616230133.0        1457051261.0        2762791137.0        2480527362.0        2282316169.0
 Wiener process for particle 9            1 F T F   2.8807221173674685E-01        3240838362.0        2841324743.0        1511688691.0        1770794434.0        4081695837.0        1197319896.0        3777646647.0        1837464056.0        4204654757.0         664239048.0        4190510072.0        2959195122.0        3777646647.0        1837464056.0        4204654757.0         664239048.0        4190510072.0        2959195122.0
 Wiener process for particle 10           1 F T F   3.3322384145966050E-01        1162464510.0        1049121999.0         258513982.0         649289157.0        1118000181.0         619661063.0        4215590817.0        3862461878.0        1087200967.0        1544910132.0         936383720.0        1611370123.0        4215590817.0        3862461878.0        1087200967.0        1544910132.0         936383720.0        1611370123.0
 Wiener process for particle 11           1 F T F   2.3594870324443518E+00        1497602559.0        1729446769.0         387167648.0        1191147286.0        3343073947.0        3918787282.0        1683636369.0         362165168.0         814316280.0         869382050.0         980203903.0        2062101717.0        1683636369.0         362165168.0         814316280.0         869382050.0         980203903.0        2062101717.0
 Wiener process for particle 12           1 F T F  -5.6693000369027535E-01        1345619632.0          64617823.0         994622574.0        3791021794.0        3834742759.0        3386171315.0         272317999.0         166758548.0         310112982.0         201045826.0        1680231254.0         118290799.0         272317999.0         166758548.0         310112982.0         201045826.0        1680231254.0         118290799.0
 Wiener process for particle 13           1 F T F   3.4508699801545101E-01        2333626656.0        3256105500.0        3318865528.0         158603596.0        4124698705.0        1709921081.0        2245755202.0        1652682525.0        2865544364.0         721509566.0         209733568.0         592362218.0        2245755202.0        1652682525.0        2865544364.0         721509566.0         209733568.0         592362218.0
 Wiener process for particle 14           1 F T F  -5.5941754951876288E-01        1473482227.0        1165479481.0        1827334047.0        1603888866.0         130243729.0         186745813.0        3003961408.0        3529909391.0          14538032.0        3603919910.0         566682685.0        1235016484.0        3003961408.0        3529909391.0          14538032.0        3603919910.0         566682685.0        1235016484.0
 Wiener process for particle 15           1 F T F   1.7474582512080541E+00        1726849283.0         913893671.0        1768030586.0        2626937134.0        2188820710.0        4068224006.0         596094074.0        2279636413.0        3050913596.0        1739649456.0        2368706608.0        3058697049.0         596094074.0        2279636413.0        3050913596.0        1739649456.0        2368706608.0        3058697049.0
 Wiener process for particle 16           1 F T F  -2.8907688552812161E+00        1466747676.0         388341387.0        1387946297.0        1929012567.0        2801468717.0         717787738.0        1437096527.0        2547142266.0        2541498983.0        2640839690.0        2160978219.0        2618657830.0        1437096527.0        2547142266.0        2541498983.0        2640839690.0        2160978219.0        2618657830.0
 Wiener process for particle 17           1 F T F   7.3649823675392967E-01        2889753862.0        2132361343.0        1830674193.0        1798587158.0        2953081291.0        1059211454.0        3224044943.0        1227141655.0        2220611050.0        1504589054.0        2829780440.0         108189859.0        3224044943.0        1227141655.0        2220611050.0        1504589054.0        2829780440.0         108189859.0
 Wiener process for particle 18           1 F T F  -2.1992250649500722E+00        2332228332.0         568329178.0        1000345176.0        3750969806.0        3339329371.0        2672073332.0         927434978.0        1593504038.0        2143021818.0        1749489845.0        1330187821.0        2371554242.0         927434978.0        1593504038.0        2143021818.0        1749489845.0        1330187821.0        2371554242.0
 Wiener process for particle 19           1 F T F  -1.5071811416084755E+00        1180591537.0        3934315778.0        2756193573.0        2406325832.0        2782285916.0        1890580666.0        3446225690.0         835741554.0        2195834023.0        1297741021.0        3357053382.0         383824268.0        3446225690.0         835741554.0        2195834023.0        1297741021.0        3357053382.0         383824268.0
 Wiener process for particle 20           1 F T F  -9.6673736084825879E-02        3895169992.0        2605862470.0         962243860.0        1619096227.0         523728133.0        1493597389.0        3984477137.0        1267973573.0        3770063761.0         216527865.0        1568537936.0        1200352663.0        3984477137.0        1267973573.0        3770063761.0         216527865.0        1568537936.0        1200352663.0
 Wiener process for particle 21           1 F T F   1.7180218245535364E+00         821639006.0        3099310534.0        3965359664.0        4275448121.0        4220155774.0        2459332340.0        2503334853.0        3179736892.0        2080184241.0        2881517721.0        3611607237.0        2639045213.0        2503334853.0        3179736892.0        2080184241.0        2881517721.0        3611607237.0        2639045213.0
 Wiener process for particle 22           1 F T F   1.0444761033839622E+00        2372510040.0        2537094467.0        3114093369.0        1267368790.0        3049743954.0        4117796655.0        2784301963.0        3004110709.0        4065265451.0        2351994899.0        1824839263.0        1473060447.0        2784301963.0        3004110709.0        4065265451.0        2351994899.0        1824839263.0        1473060447.0
 Wiener process for particle 23           1 F T F  -1.3838538358344322E-02        3126411263.0        1772201713.0        2360092197.0        1768773992.0        3958232415.0         311157865.0        3645411182.0        1391027122.0        3995023402.0         536114258.0        1376034799.0        2391282907.0        3645411182.0        1391027122.0        3995023402.0         536114258.0        1376034799.0        2391282907.0
 Wiener process for particle 24           1 F T F  -1.4319297788410721E+00        1924173607.0         821980668.0        1613167352.0        2185053575.0        3585749682.0        2722207571.0        4205039797.0        2998067142.0        2737381050.0        2060484144.0          21123025.0         900610517.0        4205039797.0        2998067142.0        2737381050.0        2060484144.0          21123025.0         900610517.0
 Wiener process for particle 25           1 F T F   6.6737447269193428E-01         767685124.0        3251111836.0        2650026013.0        3445013988.0          68874109.0        2382940830.0        1708138263.0        1103344630.0        3131738563.0         354874525.0        1462105562.0        2799820805.0        1708138263.0        1103344630.0        3131738563.0         354874525.0        1462105562.0        2799820805.0
 Wiener process for particle 26           1 F T F  -1.3119855088956670E-01        3456759144.0         810798647.0        1492535722.0         630403711.0        3025276779.0        1445044464.0        1762624356.0        3338520614.0        1869672149.0        2420033342.0        3823777008.0        4112813433.0        1762624356.0        3338520614.0        1869672149.0        2420033342.0        3823777008.0        4112813433.0
 Wiener process for particle 27           1 F T F  -8.6392181374368882E-01        2351499383.0        1308403041.0        1606655986.0        4214823254.0        3928559360.0        1370063166.0        1406960847.0        2689758640.0        2086764669.0        1479781266.0        4277003072.0        4173905453.0        1406960847.0        2689758640.0        2086764669.0        1479781266.0        4277003072.0        4173905453.0
 Wiener process for particle 28           1 F T F  -4.7616449507095082E-01         585045130.0        3931815441.0        3914041016.0        3951476080.0        3407034446.0        3949198663.0        3217706054.0        3907922111.0        3316415646.0         934936431.0        1155310743.0        1383590847.0        3217706054.0        3907922111.0        3316415646.0         934936431.0        1155310743.0        1383590847.0