 # Version information for this restart file 
 # current date 2025-04-24 11:57:28.848
 # current working dir /home/louimatt/projects/comp_chem_project/ucl3_md_new
 # Program compiled at                              Mon Feb  5 13:19:46 MST 2024
 # Program compiled on                                             sawtoothbuild
 # Program compiled for                                                    local
 # Source code revision number                                       git:b4a17a5
 &GLOBAL
   PRINT_LEVEL LOW
   PROJECT_NAME "UCl3_md"
   RUN_TYPE MD
 &END GLOBAL
 &MOTION
   &MD
     ENSEMBLE NVT
     STEPS 10000
     TIMESTEP  1.9999999999999998E+000
     STEP_START_VAL 1000
     TIME_START_VAL  1.9999999999999854E+003
     ECONS_START_VAL -4.1379789718276179E+003
     TEMPERATURE  1.2500000000000002E+003
     &THERMOSTAT
       TYPE AD_LANGEVIN
       REGION MASSIVE
       &AD_LANGEVIN
         TIMECON_NH  9.9999999999999986E+001
         TIMECON_LANGEVIN  2.4999999999999996E+000
         &CHI
             1.1070374581671307E-002
            -7.2857548537152749E-003
            -1.8007616225477522E-003
             9.9513828916492613E-003
             8.7603304547301600E-003
             1.7523721020864285E-002
             1.9054001117448725E-002
             2.6196622604645221E-004
            -1.2188846673155495E-002
             2.0360838557003866E-003
            -6.8101763857280201E-003
            -4.5014694674987057E-003
            -4.3324923608588700E-003
             1.1005283084198118E-002
             4.8727631367966821E-004
             8.8510279748956529E-003
            -5.8968072179110291E-003
             8.8762798000061871E-003
            -2.0881250360200161E-003
             1.0368022996188048E-002
             7.4721934396553575E-003
             1.0938735241891283E-002
            -7.8184099337081682E-003
             6.0163574622639415E-003
             7.8483013835802303E-003
             1.2036724577096595E-002
            -1.1046276298525750E-002
            -2.2604180658133935E-003
             7.0491113503714257E-003
             2.3954655956209361E-003
            -4.7113192584121279E-003
            -3.8160473544620066E-003
             3.6765860879438236E-003
             1.0584394987364286E-002
            -4.5044043324052718E-003
            -1.8249828721770833E-003
             7.8710839823767555E-003
             5.1920468708264176E-003
            -8.5850831690687038E-003
            -8.6603796545343546E-004
            -3.5509689176167398E-003
             1.0221726022964887E-002
            -1.0549306188050100E-003
            -2.7262457054569398E-003
            -1.1250229480881663E-002
            -3.5761408793321446E-003
             1.3348220053681371E-002
            -2.6571997883757825E-003
            -9.9928399921058808E-004
            -6.6415164885081800E-004
             2.2569297810509643E-003
             2.6977452432827721E-003
             2.0171158041358103E-002
             9.1817853762564544E-003
            -9.2954603368129267E-003
            -1.1096349594189010E-004
             1.4161839431501460E-002
            -1.0105539920195339E-002
             6.2749192402862194E-004
             9.6583828068060144E-003
             4.3924462281382942E-003
            -6.1749870613416981E-003
            -7.1641886762405704E-004
             7.2078383135801604E-003
             7.5294483616974539E-004
             6.6802595720523933E-003
            -1.1770707894364121E-002
             3.6359975107977103E-003
             5.6848407773929053E-003
            -1.0898259779459393E-002
            -3.1860466781532108E-003
            -3.4076732587780441E-003
             1.4526799606089191E-002
            -4.2476545462252725E-003
             1.2578901017535995E-002
            -7.6382154465973870E-003
            -1.8312184311134910E-003
            -6.4630665399171491E-003
            -4.6069200083332373E-003
             8.7141516159456689E-004
            -4.2420100675069270E-004
            -3.1794506914646649E-003
             1.4395466177445216E-002
            -1.0777819747774696E-002
             8.7077970794583962E-003
            -4.8927402111863224E-003
             2.4276184269846593E-003
            -1.2848218761496307E-002
            -6.6463780862599719E-003
            -2.2120494170256304E-003
             2.4473930756020595E-002
            -4.9808664404690116E-003
             1.3710258712326846E-002
            -2.3984542290718218E-003
             3.3956865097643603E-003
             4.5144404477929995E-003
            -1.1360873345873376E-002
            -5.7023008825959785E-003
             1.1138890076429594E-002
             5.0365609061677804E-003
             3.0355482466854936E-005
            -4.7401146655569057E-003
             1.4460496367468876E-002
             1.0425991793199859E-002
             1.0855464369693620E-002
             6.6505928201677415E-004
            -5.7697828467151799E-003
            -2.0892102827165626E-003
            -2.7287186508107371E-003
             1.1095374517345441E-002
             6.8703920762862979E-003
            -6.5284303111509115E-003
            -7.9366559063596433E-004
             4.4323730155687614E-003
            -3.0467532879376001E-003
             8.0402537098146383E-003
             1.3903091083187966E-003
             9.3126901855958826E-003
            -2.5005300988304394E-003
             6.1741213780179089E-003
            -7.2897764971325040E-003
            -8.7838758899247138E-003
             4.2983085264807684E-004
            -8.0036682084558292E-003
            -5.3139316627633043E-003
            -8.8155619445658400E-004
             1.2680929195321609E-003
             1.7696703659222959E-002
             4.6114667336958660E-003
            -1.2976549309707677E-002
             1.9559719078070272E-002
            -9.8767008290609731E-004
            -2.9720222520271239E-003
            -1.1927070842649837E-002
            -1.2318848806563082E-002
            -2.1243441431517519E-004
            -2.0715579211004640E-003
            -9.3018164577121556E-004
            -1.1351212308670874E-003
             2.2861513904294212E-003
             8.9846376414145675E-003
            -1.8968287047036281E-002
            -1.5220821558611389E-002
            -7.3275927201692835E-003
             1.6571622839087852E-002
             6.7022934422960808E-004
            -4.3243804655874246E-003
             2.7288128577793234E-003
             5.6931035883087677E-003
             1.3300143382200790E-002
            -9.9343585598557146E-003
             5.5178855840344555E-003
            -3.1175051127737005E-003
            -2.4554615013301181E-002
            -1.3579618351127332E-002
            -4.0163689892586682E-003
            -3.8584687332048982E-003
            -5.2031921827261811E-003
            -3.1478960441772377E-004
             5.7669499650174370E-003
             1.9765975942292145E-002
             1.3392341621705817E-002
             3.6291985267137535E-003
            -2.9050810335987717E-004
             6.5785434288458513E-003
            -8.4000957425412297E-003
            -8.2161888732144774E-003
            -1.4580846708086778E-002
             1.6191179634031383E-002
            -1.3113183476193637E-002
             1.7072053738295798E-003
             3.0715505900127233E-003
             9.8761257800024133E-004
             1.2001193700921795E-002
            -1.0856038129233397E-002
             2.1387191912311358E-002
             4.2244876965657260E-003
            -1.0795212615882385E-002
             7.9299005857583291E-004
            -1.0888137521524528E-002
             2.9901188535730902E-003
            -9.1028743956616323E-003
            -6.2144554304826303E-003
             8.8345363287879054E-003
             4.2891949922248280E-003
             8.5102461928921545E-003
             1.5566805129378105E-004
            -8.0807029780334862E-003
             3.9648258884968281E-003
            -1.2842737703370390E-003
             1.1478781673136573E-002
            -2.7408177581910000E-003
         &END CHI
         &MASS
             2.7969677064634422E+006
             2.7969677064634422E+006
             2.7969677064634422E+006
             2.7969677064634422E+006
             2.7969677064634422E+006
             2.7969677064634422E+006
             2.7969677064634422E+006
             2.7969677064634422E+006
             2.7969677064634422E+006
             2.7969677064634422E+006
             2.7969677064634422E+006
             2.7969677064634422E+006
             2.7969677064634422E+006
             2.7969677064634422E+006
             2.7969677064634422E+006
             2.7969677064634422E+006
             2.7969677064634422E+006
             2.7969677064634422E+006
             2.7969677064634422E+006
             2.7969677064634422E+006
             2.7969677064634422E+006
             2.7969677064634422E+006
             2.7969677064634422E+006
             2.7969677064634422E+006
             2.7969677064634422E+006
             2.7969677064634422E+006
             2.7969677064634422E+006
             2.7969677064634422E+006
             2.7969677064634422E+006
             2.7969677064634422E+006
             2.7969677064634422E+006
             2.7969677064634422E+006
             2.7969677064634422E+006
             2.7969677064634422E+006
             2.7969677064634422E+006
             2.7969677064634422E+006
             2.7969677064634422E+006
             2.7969677064634422E+006
             2.7969677064634422E+006
             2.7969677064634422E+006
             2.7969677064634422E+006
             2.7969677064634422E+006
             2.7969677064634422E+006
             2.7969677064634422E+006
             2.7969677064634422E+006
             2.7969677064634422E+006
             2.7969677064634422E+006
             2.7969677064634422E+006
             2.7969677064634422E+006
             2.7969677064634422E+006
             2.7969677064634422E+006
             2.7969677064634422E+006
             2.7969677064634422E+006
             2.7969677064634422E+006
             2.7969677064634422E+006
             2.7969677064634422E+006
             2.7969677064634422E+006
             2.7969677064634422E+006
             2.7969677064634422E+006
             2.7969677064634422E+006
             2.7969677064634422E+006
             2.7969677064634422E+006
             2.7969677064634422E+006
             2.7969677064634422E+006
             2.7969677064634422E+006
             2.7969677064634422E+006
             2.7969677064634422E+006
             2.7969677064634422E+006
             2.7969677064634422E+006
             2.7969677064634422E+006
             2.7969677064634422E+006
             2.7969677064634422E+006
             2.7969677064634422E+006
             2.7969677064634422E+006
             2.7969677064634422E+006
             2.7969677064634422E+006
             2.7969677064634422E+006
             2.7969677064634422E+006
             2.7969677064634422E+006
             2.7969677064634422E+006
             2.7969677064634422E+006
             2.7969677064634422E+006
             2.7969677064634422E+006
             2.7969677064634422E+006
             2.7969677064634422E+006
             2.7969677064634422E+006
             2.7969677064634422E+006
             2.7969677064634422E+006
             2.7969677064634422E+006
             2.7969677064634422E+006
             2.7969677064634422E+006
             2.7969677064634422E+006
             2.7969677064634422E+006
             2.7969677064634422E+006
             2.7969677064634422E+006
             2.7969677064634422E+006
             2.7969677064634422E+006
             2.7969677064634422E+006
             2.7969677064634422E+006
             2.7969677064634422E+006
             2.7969677064634422E+006
             2.7969677064634422E+006
             2.7969677064634422E+006
             2.7969677064634422E+006
             2.7969677064634422E+006
             2.7969677064634422E+006
             2.7969677064634422E+006
             2.7969677064634422E+006
             2.7969677064634422E+006
             2.7969677064634422E+006
             2.7969677064634422E+006
             2.7969677064634422E+006
             2.7969677064634422E+006
             2.7969677064634422E+006
             2.7969677064634422E+006
             2.7969677064634422E+006
             2.7969677064634422E+006
             2.7969677064634422E+006
             2.7969677064634422E+006
             2.7969677064634422E+006
             2.7969677064634422E+006
             2.7969677064634422E+006
             2.7969677064634422E+006
             2.7969677064634422E+006
             2.7969677064634422E+006
             2.7969677064634422E+006
             2.7969677064634422E+006
             2.7969677064634422E+006
             2.7969677064634422E+006
             2.7969677064634422E+006
             2.7969677064634422E+006
             2.7969677064634422E+006
             2.7969677064634422E+006
             2.7969677064634422E+006
             2.7969677064634422E+006
             2.7969677064634422E+006
             2.7969677064634422E+006
             2.7969677064634422E+006
             2.7969677064634422E+006
             2.7969677064634422E+006
             2.7969677064634422E+006
             2.7969677064634422E+006
             2.7969677064634422E+006
             2.7969677064634422E+006
             2.7969677064634422E+006
             2.7969677064634422E+006
             2.7969677064634422E+006
             2.7969677064634422E+006
             2.7969677064634422E+006
             2.7969677064634422E+006
             2.7969677064634422E+006
             2.7969677064634422E+006
             2.7969677064634422E+006
             2.7969677064634422E+006
             2.7969677064634422E+006
             2.7969677064634422E+006
             2.7969677064634422E+006
             2.7969677064634422E+006
             2.7969677064634422E+006
             2.7969677064634422E+006
             2.7969677064634422E+006
             2.7969677064634422E+006
             2.7969677064634422E+006
             2.7969677064634422E+006
             2.7969677064634422E+006
             2.7969677064634422E+006
             2.7969677064634422E+006
             2.7969677064634422E+006
             2.7969677064634422E+006
             2.7969677064634422E+006
             2.7969677064634422E+006
             2.7969677064634422E+006
             2.7969677064634422E+006
             2.7969677064634422E+006
             2.7969677064634422E+006
             2.7969677064634422E+006
             2.7969677064634422E+006
             2.7969677064634422E+006
             2.7969677064634422E+006
             2.7969677064634422E+006
             2.7969677064634422E+006
             2.7969677064634422E+006
             2.7969677064634422E+006
             2.7969677064634422E+006
             2.7969677064634422E+006
             2.7969677064634422E+006
             2.7969677064634422E+006
             2.7969677064634422E+006
             2.7969677064634422E+006
             2.7969677064634422E+006
             2.7969677064634422E+006
             2.7969677064634422E+006
         &END MASS
       &END AD_LANGEVIN
     &END THERMOSTAT
     &AVERAGES T
       &RESTART_AVERAGES
         ITIMES_START 1
         AVECPU  8.2380831783716488E+001
         AVEHUGONIOT  0.0000000000000000E+000
         AVETEMP_BARO  0.0000000000000000E+000
         AVEPOT -4.1425985923596199E+003
         AVEKIN  3.8173504903503980E-001
         AVETEMP  1.2556484448047174E+003
         AVEKIN_QM  0.0000000000000000E+000
         AVETEMP_QM  0.0000000000000000E+000
         AVEVOL  1.2804379601851570E+004
         AVECELL_A  2.3394809525124170E+001
         AVECELL_B  2.3394809525124170E+001
         AVECELL_C  2.3394809525124170E+001
         AVEALPHA  9.0000000000000000E+001
         AVEBETA  9.0000000000000000E+001
         AVEGAMMA  9.0000000000000000E+001
         AVE_ECONS -2.0908665164466627E+004
         AVE_PRESS  0.0000000000000000E+000
         AVE_PXX  0.0000000000000000E+000
       &END RESTART_AVERAGES
     &END AVERAGES
   &END MD
   &PRINT
     &TRAJECTORY SILENT
       FILENAME ucl3_md.xyz
       FORMAT XMOL
       &EACH
         MD 10
       &END EACH
     &END TRAJECTORY
     &VELOCITIES ON
     &END VELOCITIES
   &END PRINT
 &END MOTION
 &FORCE_EVAL
   METHOD QS
   &DFT
     BASIS_SET_FILE_NAME BASIS_MOLOPT
     BASIS_SET_FILE_NAME BASIS_MOLOPT_AcPP1
     POTENTIAL_FILE_NAME CUSTOM_POTENTIALS
     PLUS_U_METHOD LOWDIN
     &SCF
       MAX_SCF 10000
       EPS_SCF  2.9999999999999999E-007
       SCF_GUESS RESTART
       &OT T
         MINIMIZER CG
         PRECONDITIONER FULL_SINGLE_INVERSE
         ENERGY_GAP  1.0000000000000001E-001
       &END OT
     &END SCF
     &QS
       EPS_DEFAULT  1.0000000000000000E-010
     &END QS
     &MGRID
       NGRIDS 4
       CUTOFF  4.5000000000000000E+002
       REL_CUTOFF  6.0000000000000000E+001
     &END MGRID
     &XC
       DENSITY_CUTOFF  1.0000000000000000E-010
       GRADIENT_CUTOFF  1.0000000000000000E-010
       TAU_CUTOFF  1.0000000000000000E-010
       &XC_FUNCTIONAL NO_SHORTCUT
         &PBE T
         &END PBE
       &END XC_FUNCTIONAL
     &END XC
   &END DFT
   &SUBSYS
     &RNG_INIT
 Wiener process for particle 1            1 F T F  -8.6808961596250889E-01        1238999469.0         379839474.0        2662142709.0        1609514345.0        3303184685.0        1270239944.0             12345.0             12345.0             12345.0             12345.0             12345.0             12345.0             12345.0             12345.0             12345.0             12345.0             12345.0             12345.0
 Wiener process for particle 2            1 F T F   1.8828774390242484E-01        2438400773.0        4008116619.0        3438704203.0        3442370629.0        1713280727.0        4264551564.0        3692455944.0        1366884236.0        2968912127.0         335948734.0        4161675175.0         475798818.0        3692455944.0        1366884236.0        2968912127.0         335948734.0        4161675175.0         475798818.0
 Wiener process for particle 3            1 F T F  -2.0169687888776897E-01        2939752608.0        2684592349.0        1094747715.0        1196379709.0        2468035076.0        3493771073.0        1015873554.0        1310354410.0        2249465273.0         994084013.0        2912484720.0        3876682925.0        1015873554.0        1310354410.0        2249465273.0         994084013.0        2912484720.0        3876682925.0
 Wiener process for particle 4            1 F T F   6.0158869222074662E-01        3426769911.0        3024302727.0        2918273303.0        3838064832.0         514369489.0        2277158267.0        2338701263.0        1119171942.0        2570676563.0         317077452.0        3194180850.0         618832124.0        2338701263.0        1119171942.0        2570676563.0         317077452.0        3194180850.0         618832124.0
 Wiener process for particle 5            1 F T F   1.2258164396830940E+00        1209500767.0        3861644105.0        3927862012.0         958555238.0         442295101.0        3411828851.0        1597262096.0        3906379055.0        3312112953.0        1016013135.0        4099474108.0         275305423.0        1597262096.0        3906379055.0        3312112953.0        1016013135.0        4099474108.0         275305423.0
 Wiener process for particle 6            1 F T F  -1.6539181068810821E-01        1103565097.0        1142413902.0         527737678.0        3036524837.0        1122048175.0        3865239948.0          97147054.0        3131372450.0         829345164.0        3691032523.0        3006063034.0        4259826321.0          97147054.0        3131372450.0         829345164.0        3691032523.0        3006063034.0        4259826321.0
 Wiener process for particle 7            1 F T F   1.1441816837908365E+00        1239410635.0        1306267809.0        1093746235.0         833279783.0        2068730607.0        4025474145.0         796079799.0        2105258207.0         955365076.0        2923159030.0        4116632677.0        3067683584.0         796079799.0        2105258207.0         955365076.0        2923159030.0        4116632677.0        3067683584.0
 Wiener process for particle 8            1 F T F  -4.6335314047218007E-01        2741472812.0         651343949.0         211085101.0        2743480610.0        3654827610.0        3486584061.0        3281794178.0        2616230133.0        1457051261.0        2762791137.0        2480527362.0        2282316169.0        3281794178.0        2616230133.0        1457051261.0        2762791137.0        2480527362.0        2282316169.0
 Wiener process for particle 9            1 F T F  -8.7692070581071080E-01        3085243745.0        3160962197.0        1393097925.0        2776827938.0        2224691845.0        2895864012.0        3777646647.0        1837464056.0        4204654757.0         664239048.0        4190510072.0        2959195122.0        3777646647.0        1837464056.0        4204654757.0         664239048.0        4190510072.0        2959195122.0
 Wiener process for particle 10           1 F T F  -9.4617674255871909E-01         986307145.0        1718667147.0         414487610.0         331473953.0         426980421.0         350927164.0        4215590817.0        3862461878.0        1087200967.0        1544910132.0         936383720.0        1611370123.0        4215590817.0        3862461878.0        1087200967.0        1544910132.0         936383720.0        1611370123.0
 Wiener process for particle 11           1 F T F  -1.2980975634827334E+00         387614141.0        2230632383.0        3215931652.0        1426123355.0        1492221835.0        1995183583.0        1683636369.0         362165168.0         814316280.0         869382050.0         980203903.0        2062101717.0        1683636369.0         362165168.0         814316280.0         869382050.0         980203903.0        2062101717.0
 Wiener process for particle 12           1 F T F  -8.2918666129746232E-01        4261170146.0        4214665462.0        3050187648.0        2079168521.0        3641061711.0        1311752626.0         272317999.0         166758548.0         310112982.0         201045826.0        1680231254.0         118290799.0         272317999.0         166758548.0         310112982.0         201045826.0        1680231254.0         118290799.0
 Wiener process for particle 13           1 F T F  -8.1072395679712017E-01        3503788941.0        1843022568.0        2197538919.0         659351722.0         359682593.0        1651503777.0        2245755202.0        1652682525.0        2865544364.0         721509566.0         209733568.0         592362218.0        2245755202.0        1652682525.0        2865544364.0         721509566.0         209733568.0         592362218.0
 Wiener process for particle 14           1 F T F   3.3060306063721800E-01        3927228592.0        4149427341.0        3007032232.0        3615991874.0         146324850.0         727039638.0        3003961408.0        3529909391.0          14538032.0        3603919910.0         566682685.0        1235016484.0        3003961408.0        3529909391.0          14538032.0        3603919910.0         566682685.0        1235016484.0
 Wiener process for particle 15           1 F T F   4.0893801318833661E-01        2286478414.0        1574245764.0        1046694154.0        1053478274.0        3008953313.0        3274857715.0         596094074.0        2279636413.0        3050913596.0        1739649456.0        2368706608.0        3058697049.0         596094074.0        2279636413.0        3050913596.0        1739649456.0        2368706608.0        3058697049.0
 Wiener process for particle 16           1 F T F   1.2857226413173704E+00         926703094.0        3334656087.0        3513878614.0        3983637340.0        4074277604.0        2054941204.0        1437096527.0        2547142266.0        2541498983.0        2640839690.0        2160978219.0        2618657830.0        1437096527.0        2547142266.0        2541498983.0        2640839690.0        2160978219.0        2618657830.0
 Wiener process for particle 17           1 F T F   2.1172126877049062E+00        1946034357.0        3527786681.0        2871410620.0        4161813415.0         897217566.0        3077603376.0        3224044943.0        1227141655.0        2220611050.0        1504589054.0        2829780440.0         108189859.0        3224044943.0        1227141655.0        2220611050.0        1504589054.0        2829780440.0         108189859.0
 Wiener process for particle 18           1 F T F  -1.1759752230526002E+00        3963245178.0        1400214411.0        2923451215.0        1171954248.0        4288289907.0        3645935785.0         927434978.0        1593504038.0        2143021818.0        1749489845.0        1330187821.0        2371554242.0         927434978.0        1593504038.0        2143021818.0        1749489845.0        1330187821.0        2371554242.0
 Wiener process for particle 19           1 F T F  -9.3669407648839631E-01          29789687.0        2162290159.0         650278296.0        1341101324.0        1577895952.0        3540423947.0        3446225690.0         835741554.0        2195834023.0        1297741021.0        3357053382.0         383824268.0        3446225690.0         835741554.0        2195834023.0        1297741021.0        3357053382.0         383824268.0
 Wiener process for particle 20           1 F T F  -1.6813233984618736E-01        3974003093.0         513483006.0         100089076.0        2982055931.0        3409355282.0        1453298706.0        3984477137.0        1267973573.0        3770063761.0         216527865.0        1568537936.0        1200352663.0        3984477137.0        1267973573.0        3770063761.0         216527865.0        1568537936.0        1200352663.0
 Wiener process for particle 21           1 F T F   3.7734029096980526E-01         568440477.0         598187054.0        3835161744.0        3134766581.0        2226732020.0        3569033596.0        2503334853.0        3179736892.0        2080184241.0        2881517721.0        3611607237.0        2639045213.0        2503334853.0        3179736892.0        2080184241.0        2881517721.0        3611607237.0        2639045213.0
 Wiener process for particle 22           1 F T F  -1.2309710760304259E-01        3933048602.0        3404055804.0         652581368.0        3213538544.0        1596627290.0        4164620889.0        2784301963.0        3004110709.0        4065265451.0        2351994899.0        1824839263.0        1473060447.0        2784301963.0        3004110709.0        4065265451.0        2351994899.0        1824839263.0        1473060447.0
 Wiener process for particle 23           1 F T F  -5.8451913574596406E-02        3143087879.0        2299190885.0        2667331544.0        2457693973.0        1266104479.0        3249638374.0        3645411182.0        1391027122.0        3995023402.0         536114258.0        1376034799.0        2391282907.0        3645411182.0        1391027122.0        3995023402.0         536114258.0        1376034799.0        2391282907.0
 Wiener process for particle 24           1 F T F  -6.1780834751680191E-01        2967005300.0        3983087177.0        1119278506.0        3681810841.0        2005449184.0         611548382.0        4205039797.0        2998067142.0        2737381050.0        2060484144.0          21123025.0         900610517.0        4205039797.0        2998067142.0        2737381050.0        2060484144.0          21123025.0         900610517.0
 Wiener process for particle 25           1 F T F   3.6632294936906611E-02        3546358570.0        3488878040.0        3022187386.0         289487136.0        1309685618.0          38509164.0        1708138263.0        1103344630.0        3131738563.0         354874525.0        1462105562.0        2799820805.0        1708138263.0        1103344630.0        3131738563.0         354874525.0        1462105562.0        2799820805.0
 Wiener process for particle 26           1 F T F  -3.7491948681520998E-01        1709618968.0        3701588495.0        2382519661.0        2954950003.0        2604006643.0         324125739.0        1762624356.0        3338520614.0        1869672149.0        2420033342.0        3823777008.0        4112813433.0        1762624356.0        3338520614.0        1869672149.0        2420033342.0        3823777008.0        4112813433.0
 Wiener process for particle 27           1 F T F  -2.2353293516691461E-01        3074914393.0         909945078.0        2680951724.0        1906786932.0        3089961284.0        4063098402.0        1406960847.0        2689758640.0        2086764669.0        1479781266.0        4277003072.0        4173905453.0        1406960847.0        2689758640.0        2086764669.0        1479781266.0        4277003072.0        4173905453.0
 Wiener process for particle 28           1 F T F  -8.3893596518538438E-01         976853738.0         893143288.0        1596857861.0        2199026512.0        4255945343.0         721878642.0        3217706054.0        3907922111.0        3316415646.0         934936431.0        1155310743.0        1383590847.0        3217706054.0        3907922111.0        3316415646.0         934936431.0        1155310743.0        1383590847.0
 Wiener process for particle 29           1 F T F  -4.0194945632052126E-01        1875235913.0         673394529.0        2626041849.0        4087810638.0        3436942951.0        1147974671.0        2996242832.0        2506376012.0        1182520337.0         938957435.0        3286002927.0        1946707306.0        2996242832.0        2506376012.0        1182520337.0         938957435.0        3286002927.0        1946707306.0