 # Version information for this restart file 
 # current date 2025-04-28 11:39:41.528
 # current working dir /home/louimatt/projects/comp_chem_project/ucl3_md_new
 # Program compiled at                              Mon Feb  5 13:19:46 MST 2024
 # Program compiled on                                             sawtoothbuild
 # Program compiled for                                                    local
 # Source code revision number                                       git:b4a17a5
 &GLOBAL
   PRINT_LEVEL LOW
   PROJECT_NAME "UCl3_md"
   RUN_TYPE MD
 &END GLOBAL
 &MOTION
   &MD
     ENSEMBLE NVT
     STEPS 10000
     TIMESTEP  1.9999999999999998E+000
     STEP_START_VAL 4500
     TIME_START_VAL  8.9999999999992742E+003
     ECONS_START_VAL -4.1379789718276179E+003
     TEMPERATURE  1.2500000000000002E+003
     &THERMOSTAT
       TYPE AD_LANGEVIN
       REGION MASSIVE
       &AD_LANGEVIN
         TIMECON_NH  9.9999999999999986E+001
         TIMECON_LANGEVIN  2.4999999999999996E+000
         &CHI
             2.7019505090440446E-003
            -1.8815772875381172E-002
            -6.3162808833614314E-003
             1.5504209640129296E-003
             1.1721956746898993E-002
             1.6498634942471713E-003
            -5.5672481015985580E-003
            -1.0072917207019120E-003
            -5.7775890500296407E-003
            -1.5673537402969121E-002
             1.0410319423915935E-002
             6.8639476742568904E-003
             1.8382644462374770E-002
             7.7765606096410998E-003
            -1.6791976670053582E-003
            -3.2645270270385968E-003
            -1.1742068334772975E-002
            -1.0604237900069678E-002
            -5.3955111231115118E-003
             6.9822700957391116E-003
            -4.4520924796423314E-003
             6.5067672253370755E-003
            -2.4168194441169283E-003
            -6.9398174016178308E-004
            -1.5933587631108314E-002
             1.9481409396659235E-003
             1.4237564409857921E-002
             2.9754019473274321E-003
             2.1896244565931158E-002
            -3.6263563313206297E-005
             1.4107862659784164E-003
            -1.5541238538460699E-002
             7.0746101592523789E-003
            -5.8105561632529846E-003
            -5.1724282443626479E-003
            -1.1889769879852713E-002
            -1.4625178897580008E-002
             4.4699883093591904E-003
            -1.4714364780587670E-002
            -4.9693483568662407E-003
            -2.0023142468815765E-002
             1.1268262813450811E-002
             7.3747151129630577E-003
             1.3091577501496074E-002
             1.9112450444647791E-003
             1.2761050742370734E-002
            -3.1049911037511094E-003
            -1.0378907659222578E-003
             5.5481524689376064E-003
            -6.2278775782035741E-003
            -1.9269537230981362E-003
             3.9263340945166932E-003
             8.1645631653998949E-003
             6.1130268797099790E-003
             1.0935429612427551E-002
             8.1893562152092242E-004
            -1.3973618017885542E-002
            -1.6299523435027670E-002
             2.2624396066929543E-002
             9.4590991153476398E-003
             8.1704146414338895E-003
             3.9553460588943852E-003
             4.9329202689250614E-003
            -7.5053166363482009E-004
            -5.8215426134565354E-003
             9.0123067441135445E-003
            -1.5133190837857611E-002
            -1.9341313122054907E-002
            -6.8276990296591445E-003
            -8.6441580786451779E-003
             8.8549575025832512E-004
            -8.6502003814020213E-003
             1.1179888972008643E-002
             9.3978460646378260E-003
            -9.9009419490651341E-004
            -9.3491878004157113E-003
            -2.9711344556017970E-003
            -1.6233568078264919E-002
            -5.3446513678041176E-003
            -1.1283292268743776E-002
            -4.2280308118653152E-003
             1.9955094333064385E-002
             9.9254345897388276E-003
             5.2576351207983410E-003
             5.3404410811449974E-003
             3.4073804398246474E-003
             7.5926173551835435E-003
             8.0372976651584029E-003
            -1.6058848939972704E-002
             2.5383194448431259E-002
             4.4369197311956016E-003
             1.0913451329919834E-002
             5.0924368757680064E-003
             8.4032713979198155E-003
            -1.0577284770028946E-002
             5.9092568999094316E-003
            -1.9066582930293771E-002
             5.6081743684872360E-003
            -4.1134363196274242E-003
             2.9854742387579649E-002
             1.9629949560604717E-003
             5.9686427880934288E-003
             9.9088479804906315E-003
             8.1263584041333572E-003
             4.7797210148297787E-003
            -4.8828109920257979E-003
             6.0026854814870302E-004
             1.4504536501182884E-002
             3.7633243121415689E-004
             1.7236818753913472E-003
             1.6756466005457698E-002
             1.8749090970978211E-002
             1.0167296249871888E-002
            -2.3270340103147282E-003
             1.1665452040015307E-002
             1.5125140727514585E-002
            -2.0514602259677980E-002
            -7.0970513699030041E-003
             1.6834314348795199E-004
             2.7689700721599776E-003
             8.1214687875825285E-003
            -1.7970258022436125E-002
            -6.8229290360815008E-003
            -6.1767633804469336E-003
            -3.9296938404959018E-003
             1.6582991274254014E-002
             7.0456831201091315E-003
             7.0111019474358360E-003
             2.6397860962272614E-002
            -1.7111636953983354E-002
            -3.1250701667116959E-003
             8.8517691806906163E-004
            -8.7263000142082155E-003
            -8.2560762134763592E-003
            -3.3482522742668316E-002
            -7.5159543731727705E-003
            -4.4875247417528992E-003
            -4.7650010229517096E-005
             1.6308287908570187E-003
             1.2655514503032608E-002
             2.5932254133796784E-002
            -4.0389471806209767E-003
            -7.5246203724195901E-003
            -1.0950164056983926E-002
             7.9516831672706203E-003
             2.9634421150502776E-003
            -5.6974469183405973E-003
             2.4824506172748430E-003
             1.4477572569379334E-003
            -6.7170799540717044E-003
             3.6270898584603471E-003
             8.3875782505921995E-003
             2.0282379348560271E-002
             1.0411001457301979E-002
             1.8587860208191802E-003
            -2.6946347186894769E-003
            -7.4807845692007368E-003
            -2.0894287397761446E-002
             8.4043750286856844E-003
             8.7837560870557361E-003
             1.8160371034538312E-003
            -1.5148847064896201E-002
             2.9588549772709301E-004
            -1.3953094246569337E-002
            -7.4057961707311914E-003
             5.4448273270515353E-003
             4.0991782499725219E-004
            -4.1387386258321520E-003
            -1.6311700367872776E-002
            -6.3880297424925110E-003
            -5.2310510852474432E-003
             3.7185206385175105E-003
            -1.1942723500377445E-002
            -7.7907737042017203E-003
            -7.9985901873336641E-003
             8.8069329626618720E-003
            -9.3074496387142904E-003
            -8.3857037957083980E-003
             5.2773901230990690E-003
            -1.4022787971614790E-002
             1.7809158966222295E-002
            -1.6749233145775404E-002
             2.2879984788806754E-003
             1.1662766362857688E-003
            -8.2581869727722974E-003
            -5.4055387147413387E-003
             1.0326685087495052E-002
            -1.3513185773224414E-002
             3.0915489452961356E-003
            -1.1949589230273732E-002
            -6.2349532466355693E-003
            -7.0121632251558099E-003
         &END CHI
         &MASS
             2.7969677064634417E+006
             2.7969677064634417E+006
             2.7969677064634417E+006
             2.7969677064634417E+006
             2.7969677064634417E+006
             2.7969677064634417E+006
             2.7969677064634417E+006
             2.7969677064634417E+006
             2.7969677064634417E+006
             2.7969677064634417E+006
             2.7969677064634417E+006
             2.7969677064634417E+006
             2.7969677064634417E+006
             2.7969677064634417E+006
             2.7969677064634417E+006
             2.7969677064634417E+006
             2.7969677064634417E+006
             2.7969677064634417E+006
             2.7969677064634417E+006
             2.7969677064634417E+006
             2.7969677064634417E+006
             2.7969677064634417E+006
             2.7969677064634417E+006
             2.7969677064634417E+006
             2.7969677064634417E+006
             2.7969677064634417E+006
             2.7969677064634417E+006
             2.7969677064634417E+006
             2.7969677064634417E+006
             2.7969677064634417E+006
             2.7969677064634417E+006
             2.7969677064634417E+006
             2.7969677064634417E+006
             2.7969677064634417E+006
             2.7969677064634417E+006
             2.7969677064634417E+006
             2.7969677064634417E+006
             2.7969677064634417E+006
             2.7969677064634417E+006
             2.7969677064634417E+006
             2.7969677064634417E+006
             2.7969677064634417E+006
             2.7969677064634417E+006
             2.7969677064634417E+006
             2.7969677064634417E+006
             2.7969677064634417E+006
             2.7969677064634417E+006
             2.7969677064634417E+006
             2.7969677064634417E+006
             2.7969677064634417E+006
             2.7969677064634417E+006
             2.7969677064634417E+006
             2.7969677064634417E+006
             2.7969677064634417E+006
             2.7969677064634417E+006
             2.7969677064634417E+006
             2.7969677064634417E+006
             2.7969677064634417E+006
             2.7969677064634417E+006
             2.7969677064634417E+006
             2.7969677064634417E+006
             2.7969677064634417E+006
             2.7969677064634417E+006
             2.7969677064634417E+006
             2.7969677064634417E+006
             2.7969677064634417E+006
             2.7969677064634417E+006
             2.7969677064634417E+006
             2.7969677064634417E+006
             2.7969677064634417E+006
             2.7969677064634417E+006
             2.7969677064634417E+006
             2.7969677064634417E+006
             2.7969677064634417E+006
             2.7969677064634417E+006
             2.7969677064634417E+006
             2.7969677064634417E+006
             2.7969677064634417E+006
             2.7969677064634417E+006
             2.7969677064634417E+006
             2.7969677064634417E+006
             2.7969677064634417E+006
             2.7969677064634417E+006
             2.7969677064634417E+006
             2.7969677064634417E+006
             2.7969677064634417E+006
             2.7969677064634417E+006
             2.7969677064634417E+006
             2.7969677064634417E+006
             2.7969677064634417E+006
             2.7969677064634417E+006
             2.7969677064634417E+006
             2.7969677064634417E+006
             2.7969677064634417E+006
             2.7969677064634417E+006
             2.7969677064634417E+006
             2.7969677064634417E+006
             2.7969677064634417E+006
             2.7969677064634417E+006
             2.7969677064634417E+006
             2.7969677064634417E+006
             2.7969677064634417E+006
             2.7969677064634417E+006
             2.7969677064634417E+006
             2.7969677064634417E+006
             2.7969677064634417E+006
             2.7969677064634417E+006
             2.7969677064634417E+006
             2.7969677064634417E+006
             2.7969677064634417E+006
             2.7969677064634417E+006
             2.7969677064634417E+006
             2.7969677064634417E+006
             2.7969677064634417E+006
             2.7969677064634417E+006
             2.7969677064634417E+006
             2.7969677064634417E+006
             2.7969677064634417E+006
             2.7969677064634417E+006
             2.7969677064634417E+006
             2.7969677064634417E+006
             2.7969677064634417E+006
             2.7969677064634417E+006
             2.7969677064634417E+006
             2.7969677064634417E+006
             2.7969677064634417E+006
             2.7969677064634417E+006
             2.7969677064634417E+006
             2.7969677064634417E+006
             2.7969677064634417E+006
             2.7969677064634417E+006
             2.7969677064634417E+006
             2.7969677064634417E+006
             2.7969677064634417E+006
             2.7969677064634417E+006
             2.7969677064634417E+006
             2.7969677064634417E+006
             2.7969677064634417E+006
             2.7969677064634417E+006
             2.7969677064634417E+006
             2.7969677064634417E+006
             2.7969677064634417E+006
             2.7969677064634417E+006
             2.7969677064634417E+006
             2.7969677064634417E+006
             2.7969677064634417E+006
             2.7969677064634417E+006
             2.7969677064634417E+006
             2.7969677064634417E+006
             2.7969677064634417E+006
             2.7969677064634417E+006
             2.7969677064634417E+006
             2.7969677064634417E+006
             2.7969677064634417E+006
             2.7969677064634417E+006
             2.7969677064634417E+006
             2.7969677064634417E+006
             2.7969677064634417E+006
             2.7969677064634417E+006
             2.7969677064634417E+006
             2.7969677064634417E+006
             2.7969677064634417E+006
             2.7969677064634417E+006
             2.7969677064634417E+006
             2.7969677064634417E+006
             2.7969677064634417E+006
             2.7969677064634417E+006
             2.7969677064634417E+006
             2.7969677064634417E+006
             2.7969677064634417E+006
             2.7969677064634417E+006
             2.7969677064634417E+006
             2.7969677064634417E+006
             2.7969677064634417E+006
             2.7969677064634417E+006
             2.7969677064634417E+006
             2.7969677064634417E+006
             2.7969677064634417E+006
             2.7969677064634417E+006
             2.7969677064634417E+006
             2.7969677064634417E+006
             2.7969677064634417E+006
             2.7969677064634417E+006
             2.7969677064634417E+006
             2.7969677064634417E+006
             2.7969677064634417E+006
             2.7969677064634417E+006
             2.7969677064634417E+006
             2.7969677064634417E+006
             2.7969677064634417E+006
             2.7969677064634417E+006
             2.7969677064634417E+006
         &END MASS
       &END AD_LANGEVIN
     &END THERMOSTAT
     &AVERAGES T
       &RESTART_AVERAGES
         ITIMES_START 1
         AVECPU  7.2201513001371040E+001
         AVEHUGONIOT  0.0000000000000000E+000
         AVETEMP_BARO  0.0000000000000000E+000
         AVEPOT -4.1431096503187264E+003
         AVEKIN  3.7977731458924591E-001
         AVETEMP  1.2492088312077581E+003
         AVEKIN_QM  0.0000000000000000E+000
         AVETEMP_QM  0.0000000000000000E+000
         AVEVOL  1.2804379601851429E+004
         AVECELL_A  2.3394809525124455E+001
         AVECELL_B  2.3394809525124455E+001
         AVECELL_C  2.3394809525124455E+001
         AVEALPHA  9.0000000000000000E+001
         AVEBETA  9.0000000000000000E+001
         AVEGAMMA  9.0000000000000000E+001
         AVE_ECONS -2.3440629973369149E+004
         AVE_PRESS  0.0000000000000000E+000
         AVE_PXX  0.0000000000000000E+000
       &END RESTART_AVERAGES
     &END AVERAGES
   &END MD
   &PRINT
     &TRAJECTORY SILENT
       FILENAME ucl3_md.xyz
       FORMAT XMOL
       &EACH
         MD 10
       &END EACH
     &END TRAJECTORY
     &VELOCITIES ON
     &END VELOCITIES
   &END PRINT
 &END MOTION
 &FORCE_EVAL
   METHOD QS
   &DFT
     BASIS_SET_FILE_NAME BASIS_MOLOPT
     BASIS_SET_FILE_NAME BASIS_MOLOPT_AcPP1
     POTENTIAL_FILE_NAME CUSTOM_POTENTIALS
     PLUS_U_METHOD LOWDIN
     &SCF
       MAX_SCF 10000
       EPS_SCF  2.9999999999999999E-007
       SCF_GUESS RESTART
       &OT T
         MINIMIZER CG
         PRECONDITIONER FULL_SINGLE_INVERSE
         ENERGY_GAP  1.0000000000000001E-001
       &END OT
     &END SCF
     &QS
       EPS_DEFAULT  1.0000000000000000E-010
     &END QS
     &MGRID
       NGRIDS 4
       CUTOFF  4.5000000000000000E+002
       REL_CUTOFF  6.0000000000000000E+001
     &END MGRID
     &XC
       DENSITY_CUTOFF  1.0000000000000000E-010
       GRADIENT_CUTOFF  1.0000000000000000E-010
       TAU_CUTOFF  1.0000000000000000E-010
       &XC_FUNCTIONAL NO_SHORTCUT
         &PBE T
         &END PBE
       &END XC_FUNCTIONAL
     &END XC
     &REAL_TIME_PROPAGATION
       INITIAL_WFN SCF_WFN
     &END REAL_TIME_PROPAGATION
   &END DFT
   &SUBSYS
     &RNG_INIT
 Wiener process for particle 1            1 F T F  -7.4024309221767393E-02         490263625.0         599561846.0        2884493811.0        2028977851.0        2766625265.0        1403076415.0             12345.0             12345.0             12345.0             12345.0             12345.0             12345.0             12345.0             12345.0             12345.0             12345.0             12345.0             12345.0
 Wiener process for particle 2            1 F T F   1.5502513251088879E+00        2487418288.0        2468724281.0         856874608.0         128515768.0        3924432735.0        1662652478.0        3692455944.0        1366884236.0        2968912127.0         335948734.0        4161675175.0         475798818.0        3692455944.0        1366884236.0        2968912127.0         335948734.0        4161675175.0         475798818.0
 Wiener process for particle 3            1 F T F   9.6177410917598649E-01        1726381483.0        3125827151.0        3348750275.0        2579200842.0        3695368167.0         152408092.0        1015873554.0        1310354410.0        2249465273.0         994084013.0        2912484720.0        3876682925.0        1015873554.0        1310354410.0        2249465273.0         994084013.0        2912484720.0        3876682925.0
 Wiener process for particle 4            1 F T F  -1.2376154481066837E+00         487097839.0        1295053065.0        3558233279.0        3093566588.0        4222000332.0        4152920229.0        2338701263.0        1119171942.0        2570676563.0         317077452.0        3194180850.0         618832124.0        2338701263.0        1119171942.0        2570676563.0         317077452.0        3194180850.0         618832124.0
 Wiener process for particle 5            1 F T F  -1.9175465314872091E+00         933794526.0         312971779.0        1009427011.0        3787151519.0        3148187499.0         945069483.0        1597262096.0        3906379055.0        3312112953.0        1016013135.0        4099474108.0         275305423.0        1597262096.0        3906379055.0        3312112953.0        1016013135.0        4099474108.0         275305423.0
 Wiener process for particle 6            1 F T F  -1.8140239079879998E+00        3927675565.0        2577089155.0        2071945263.0        3540710429.0        1324455445.0        3036878320.0          97147054.0        3131372450.0         829345164.0        3691032523.0        3006063034.0        4259826321.0          97147054.0        3131372450.0         829345164.0        3691032523.0        3006063034.0        4259826321.0
 Wiener process for particle 7            1 F T F  -1.6130647251997740E-01         976094715.0        3891359760.0        3303315563.0        2899875489.0        2734162650.0        4230717113.0         796079799.0        2105258207.0         955365076.0        2923159030.0        4116632677.0        3067683584.0         796079799.0        2105258207.0         955365076.0        2923159030.0        4116632677.0        3067683584.0
 Wiener process for particle 8            1 F T F  -1.1128932427590994E+00        3028339605.0        1142426872.0         168754608.0        3258135611.0        4004221266.0         384870140.0        3281794178.0        2616230133.0        1457051261.0        2762791137.0        2480527362.0        2282316169.0        3281794178.0        2616230133.0        1457051261.0        2762791137.0        2480527362.0        2282316169.0
 Wiener process for particle 9            1 F T F  -1.4689581128574389E+00        3732254733.0        2370491315.0        1365518393.0        3237872606.0        1291934687.0        1588511770.0        3777646647.0        1837464056.0        4204654757.0         664239048.0        4190510072.0        2959195122.0        3777646647.0        1837464056.0        4204654757.0         664239048.0        4190510072.0        2959195122.0
 Wiener process for particle 10           1 F T F  -8.8285348570760569E-01         440219842.0        3791900855.0        3338007790.0        2769918937.0        3129513238.0         648014570.0        4215590817.0        3862461878.0        1087200967.0        1544910132.0         936383720.0        1611370123.0        4215590817.0        3862461878.0        1087200967.0        1544910132.0         936383720.0        1611370123.0
 Wiener process for particle 11           1 F T F  -3.2325649134193779E-01        2580221601.0        1062196230.0          98463344.0        2477872475.0         151986307.0        2310421816.0        1683636369.0         362165168.0         814316280.0         869382050.0         980203903.0        2062101717.0        1683636369.0         362165168.0         814316280.0         869382050.0         980203903.0        2062101717.0
 Wiener process for particle 12           1 F T F  -1.1418481282938169E+00         570846712.0        1984243397.0         148192199.0        3196714143.0         339649536.0        1155152220.0         272317999.0         166758548.0         310112982.0         201045826.0        1680231254.0         118290799.0         272317999.0         166758548.0         310112982.0         201045826.0        1680231254.0         118290799.0
 Wiener process for particle 13           1 F T F  -6.7063001307679382E-01        2817809690.0        4248153435.0        2551995509.0        2797117099.0        2350191603.0        2760451861.0        2245755202.0        1652682525.0        2865544364.0         721509566.0         209733568.0         592362218.0        2245755202.0        1652682525.0        2865544364.0         721509566.0         209733568.0         592362218.0
 Wiener process for particle 14           1 F T F   1.5738075684620807E+00        3800782754.0        3017220560.0        3385127268.0        1065494378.0        4072544936.0         823826082.0        3003961408.0        3529909391.0          14538032.0        3603919910.0         566682685.0        1235016484.0        3003961408.0        3529909391.0          14538032.0        3603919910.0         566682685.0        1235016484.0
 Wiener process for particle 15           1 F T F   5.3478875233305279E-01        2477263659.0        1137074010.0         303250000.0        1211949576.0        1702765785.0        3414563142.0         596094074.0        2279636413.0        3050913596.0        1739649456.0        2368706608.0        3058697049.0         596094074.0        2279636413.0        3050913596.0        1739649456.0        2368706608.0        3058697049.0
 Wiener process for particle 16           1 F T F   1.1984851677916732E+00         433343481.0        2725649110.0        1340132904.0        1312932632.0        3564769111.0        3883489515.0        1437096527.0        2547142266.0        2541498983.0        2640839690.0        2160978219.0        2618657830.0        1437096527.0        2547142266.0        2541498983.0        2640839690.0        2160978219.0        2618657830.0
 Wiener process for particle 17           1 F T F   1.4224433619118453E+00        3493637872.0        3069782543.0        2488297261.0        2250586987.0        3939767224.0         465033950.0        3224044943.0        1227141655.0        2220611050.0        1504589054.0        2829780440.0         108189859.0        3224044943.0        1227141655.0        2220611050.0        1504589054.0        2829780440.0         108189859.0
 Wiener process for particle 18           1 F T F   7.5159298130849839E-01        4040942233.0         228062433.0           6889714.0        2070993007.0        1002054069.0        2935232082.0         927434978.0        1593504038.0        2143021818.0        1749489845.0        1330187821.0        2371554242.0         927434978.0        1593504038.0        2143021818.0        1749489845.0        1330187821.0        2371554242.0
 Wiener process for particle 19           1 F T F  -1.9703952294559665E-01        2667705751.0         993500315.0        1952808577.0         313473822.0         187143976.0        3501991945.0        3446225690.0         835741554.0        2195834023.0        1297741021.0        3357053382.0         383824268.0        3446225690.0         835741554.0        2195834023.0        1297741021.0        3357053382.0         383824268.0
 Wiener process for particle 20           1 F T F  -3.8353861485897095E-01        3568127104.0        2389210391.0        3644617127.0         595512178.0        1539669020.0         887790024.0        3984477137.0        1267973573.0        3770063761.0         216527865.0        1568537936.0        1200352663.0        3984477137.0        1267973573.0        3770063761.0         216527865.0        1568537936.0        1200352663.0
 Wiener process for particle 21           1 F T F  -7.8419432981201431E-01        2424596077.0        3980441878.0        1976304137.0        2955044851.0        2368318265.0        3001941189.0        2503334853.0        3179736892.0        2080184241.0        2881517721.0        3611607237.0        2639045213.0        2503334853.0        3179736892.0        2080184241.0        2881517721.0        3611607237.0        2639045213.0
 Wiener process for particle 22           1 F T F   7.7166921120541265E-01        3054084901.0        3757906729.0        1276852117.0        1274435139.0         784981493.0        3490175387.0        2784301963.0        3004110709.0        4065265451.0        2351994899.0        1824839263.0        1473060447.0        2784301963.0        3004110709.0        4065265451.0        2351994899.0        1824839263.0        1473060447.0
 Wiener process for particle 23           1 F T F   5.2859518572560649E-01        2882458204.0        3752655632.0        3093985968.0        3244397732.0        3903991818.0        4150114355.0        3645411182.0        1391027122.0        3995023402.0         536114258.0        1376034799.0        2391282907.0        3645411182.0        1391027122.0        3995023402.0         536114258.0        1376034799.0        2391282907.0
 Wiener process for particle 24           1 F T F  -1.2503680676463118E+00         169937261.0         964555486.0        2821517933.0         522265342.0          67767707.0        3655466537.0        4205039797.0        2998067142.0        2737381050.0        2060484144.0          21123025.0         900610517.0        4205039797.0        2998067142.0        2737381050.0        2060484144.0          21123025.0         900610517.0
 Wiener process for particle 25           1 F T F  -2.0575835767251727E+00        3168036971.0        2004164734.0        3433094000.0         803935976.0         240993081.0        1037024867.0        1708138263.0        1103344630.0        3131738563.0         354874525.0        1462105562.0        2799820805.0        1708138263.0        1103344630.0        3131738563.0         354874525.0        1462105562.0        2799820805.0
 Wiener process for particle 26           1 F T F   3.5237293625181249E-01        4184771356.0        3509487932.0        2858865089.0        2787076313.0         362902233.0        1564081681.0        1762624356.0        3338520614.0        1869672149.0        2420033342.0        3823777008.0        4112813433.0        1762624356.0        3338520614.0        1869672149.0        2420033342.0        3823777008.0        4112813433.0
 Wiener process for particle 27           1 F T F   4.9508404679270818E-01        3750472225.0        3373012878.0        3809772737.0        2870597135.0        4085307068.0        3334569336.0        1406960847.0        2689758640.0        2086764669.0        1479781266.0        4277003072.0        4173905453.0        1406960847.0        2689758640.0        2086764669.0        1479781266.0        4277003072.0        4173905453.0
 Wiener process for particle 28           1 F T F  -2.6383955510033243E+00        3017359987.0        2250293287.0         462714126.0        3162679171.0         479142070.0        2329625086.0        3217706054.0        3907922111.0        3316415646.0         934936431.0        1155310743.0        1383590847.0        3217706054.0        3907922111.0        3316415646.0         934936431.0        1155310743.0        1383590847.0